[TITLE]


[OPTIONS]

FLOW_UNITS           MGD
INFILTRATION         HORTON
FLOW_ROUTING         DYNWAVE
LINK_OFFSETS         DEPTH
MIN_SLOPE            0
ALLOW_PONDING        NO
SKIP_STEADY_STATE    NO

START_DATE           05/31/2015
START_TIME           10:00:00
REPORT_START_DATE    05/31/2015
REPORT_START_TIME    10:00:00
END_DATE             06/02/2015
END_TIME             12:00:00
SWEEP_START          01/01
SWEEP_END            12/31
DRY_DAYS             5.000000
REPORT_STEP          00:05:00
WET_STEP             00:05:00
DRY_STEP             01:00:00
ROUTING_STEP         2
RULE_STEP            00:00:00

INERTIAL_DAMPING     PARTIAL
NORMAL_FLOW_LIMITED  BOTH
FORCE_MAIN_EQUATION  H-W
VARIABLE_STEP        0.65
LENGTHENING_STEP     10
MIN_SURFAREA         50
MAX_TRIALS           12
HEAD_TOLERANCE       0.005
SYS_FLOW_TOL         5
LAT_FLOW_TOL         5
MINIMUM_STEP         0.05
THREADS              8
IGNORE_SNOWMELT      YES
IGNORE_GROUNDWATER   YES
IGNORE_QUALITY       YES

[EVAPORATION]


CONSTANT         0.000000
DRY_ONLY         NO

[RAINGAGES]


AA0              VOLUME    0.083333 1.0      TIMESERIES AA0
AA1              VOLUME    0.083333 1.0      TIMESERIES AA1
AAAAAAAAAAAAAAAAAAAAA0 VOLUME    0.083333 1.0      TIMESERIES AAAE9
AAAAAAAAAAAAAAAAAAAAA1 VOLUME    0.083333 1.0      TIMESERIES AAAE6
AAAAAAAAAAAAAAAAAAAAA2 VOLUME    0.083333 1.0      TIMESERIES AAAE7
AAAAAAAAAAAAAAAAAAAAA3 VOLUME    0.083333 1.0      TIMESERIES AAAE8

[SUBCATCHMENTS]


AAAAA0           AA1              AAAAAAAAA2P      62.2882  22.979   1454.444 1.29     0

AAAAA1           AA1              AAAAAAAAA2J      29.3079  20.592   1105.674 9.01     0
AAAAA2           AA1              AAAAAAAAA2F      11.7712  30.51    943.33   12.3     0
AAAAA3           AA1              AAAAAAAAA1R      9.92502  30.51    652      5.83     0

AAAAA4           AAAAAAAAAAAAAAAAAAAAA0 AAAAAAAAA4J 98.3571 32.4     1071     0.7      0

AAAAA5           AAAAAAAAAAAAAAAAAAAAA0 AAAAAAAAA4P 201.117 28.06    2331     0.7      0

AAAAA6           AAAAAAAAAAAAAAAAAAAAA0 AAAAAAAAA4Q 425.975 36.74    2794.67  0.7      0

AAAAA7           AAAAAAAAAAAAAAAAAAAAA0 AAAAAAAAA4X 125.444 46.47    2301.75  0.59     0

AAAAA8           AAAAAAAAAAAAAAAAAAAAA0 AAAAAAAAA3C 88.9513 42.01    1481     0.72     0

AAAAA9           AAAAAAAAAAAAAAAAAAAAA0 AAAAAAAAA29 54.2405 19.71    1479.33  0.41     0

AAAAA-           AAAAAAAAAAAAAAAAAAAAA0 AAAAAAAABB7 277.891 42.1     3230.67  0.72     0

AAAAA_           AAAAAAAAAAAAAAAAAAAAA0 AAAAAAAAAI7 222.365 36.19    2529     0.28     0

AAAAB0           AAAAAAAAAAAAAAAAAAAAA0 AAAAAAAAAJ6 129.774 33.28    2294.67  1.82     0

AAAAB1           AAAAAAAAAAAAAAAAAAAAA0 AAAAAAAAAJ3 197.944 36.17    3141.669 0.97     0

AAAAB2           AA0              AAAAAAAAAM1      264.16   33.18    2831.5   1.7      0

AAAAB3           AAAAAAAAAAAAAAAAAAAAA0 AAAAL6     143.359  21.13    2374.5   0.25     0

AAAAB4           AAAAAAAAAAAAAAAAAAAAA0 AAAAL6     150.06   18.41    2089     0.57     0

AAAAB5           AAAAAAAAAAAAAAAAAAAAA0 AAAAL6     205.329  17.32    2177     1.35     0

AAAAB6           AA0              AAAAAAAAA_N      143.474  19.39    1819     1.61     0

AAAAB7           AAAAAAAAAAAAAAAAAAAAA0 AAAAAAAAA_N 44.9499 19.59    1224.5   2.44     0

AAAAB8           AA0              AAAAAAAAA_N      50.2278  19.64    753.5    1.53     0

AAAAB9           AA0              AAAAAAAAA_N      57.8171  15.87    301.75   2.82     0

AAAAB-           AAAAAAAAAAAAAAAAAAAAA0 AAAAL6     277.125  27.36    2806.25  1.29     0

AAAAB_           AA0              AAAAAAAAA_N      114.225  31.87    1273.25  0.99     0

AAAAC0           AA0              AAAAAAAAAL3      114.511  18.67    1503.67  0.51     0

AAAAC1           AA0              AAAAAAAAAL3      90.5913  17.81    1983.67  1.79     0

AAAAC2           AA0              AAAAAAAAAL3      19.775   16.1     1681.999 2.34     0

AAAAC3           AA0              AAAAAAAAAL3      155.337  20.53    1504.25  1.6      0

AAAAC4           AA0              AAAAAAAAAL3      17.6276  24.16    907.67   1.85     0

AAAAC5           AA0              AAAAAAAAAL3      8.89309  20.24    402.33   3.98     0

AAAAC6           AA0              AAAAAAAAAL3      106.478  13.85    1663     1.92     0

AAAAC7           AA0              AAAAAAAAA2V      61.9169  12.34    1650.5   1.66     0
AAAAAA0          AA0              AAAAAAAAAL3      52.35    7.6      820      1.4      0

AAAAC8           AA0              AAAAAAAAAK4      178.336  20.69    3510.001 2.09     0

AAAAC9           AA0              AAAAAAAAA25      39.6545  23.17    1084.75  4.16     0

AAAAC-           AA0              AAAAAAAAA28      112.821  18.79    1564.5   2.31     0

AAAAC_           AA0              AAAAAAAAAL2      79.6222  35.29    1292.25  1.13     0

AAAAD0           AA0              AAAAAAAAA6B      150.987  22.02    1272.25  2.59     0

AAAAD1           AA0              AAAAAAAAA59      180.756  36.77    1840.5   2.53     0

AAAAD2           AA0              AAAAAAAAAAB5     144.606  21.76    2195     2.63     0

AAAAD3           AA1              AAAAAAAAA62      182.793  21.76    3900     2.63     0

AAAAD4           AA1              AAAAAAAAA6Y      22.3985  27.33    585.33   2.28     0

AAAAD5           AA1              AAAAAAAAA-_      94.6131  32.89    1756     4.99     0

AAAAD6           AA1              AAAAAAAAAAB8     33.4058  32.89    890      13.93    0

AAAAD7           AA1              AAAAAAAAA3T      195.72   29       1890.75  1.62     0

AAAAD8           AA1              AAAAAAAAA3P      22.9042  49.42    954      2.4      0

AAAAD9           AA1              AAAAAAAAAD0      21.09    49.42    954      2.4      0

AAAAD-           AA1              AAAAAAAAAB1      100.781  46.64    1270.75  4.73     0

AAAAD_           AA1              AAAE3            30.153   50.04    1691.001 2.27     0

AAAAE0           AA1              AAAAAAAAAD9      3.64414  49.06    386.67   5.88     0

AAAAAA1          AA0              AAAAAAAAA27      30.2743  20.33    1170     3.24     0

AAAAAA2          AA0              AAAAAAAAA27      5.89266  20.17    947.751  9.26     0

AAAAAA3          AA0              AAAAAAAAA27      24.4256  14.33    1060     2.26     0

AAAAAA4          AA0              AAAAAAAAA27      34.1543  30.44    2928.001 3.74     0

AAAAAA5          AA0              AAAAAAAAA27      100.521  21.95    1601.5   1.12     0

AAAAAA6          AA0              AAAAAAAAA27      54.785   17.51    1203     0.55     0

AAAAAA7          AA0              AAAAAAAAA27      99.0877  21.96    1238.25  1.04     0

AAAAAA8          AA0              AAAAAAAAA27      87.7672  18.67    1746.25  1.8      0

AAAAE1           AA1              AAAAAAAAAM6      27.4231  48.98    698.67   3.63     0

AAAAE2           AA1              AAAAAAAABC1      34.998   51.76    881.67   2.11     0

AAAAE3           AA1              AAAAAAAAAM-      6.53719  35.44    413.33   6.19     0

AAAAE4           AA1              AAAAAAAAAO4      11.3821  49.74    609      6.75     0

AAAAE5           AA1              AAAAAAAAAO0      177.932  44.31    2365.25  1.74     0

AAAAE6           AA1              AAAAAAAAAO2      55.8754  29.69    1379.33  1.74     0

AAAAE7           AA1              AAAAAAAAAI5      163.067  37       1801.25  0.84     0

AAAAE8           AA1              AAAAAAAAAI5      49.8916  25.99    625.75   1.08     0

AAAAE9           AA1              AAAAAAAAAI4      78.3568  25.75    603.33   1.86     0

AAAAE-           AA1              AAAAAAAAAO9      89.9643  17.41    1690     1.92     0
AAAAAA9          AA1              AAAAAAAAAO8      0        0        0        0        0

AAAAE_           AA1              AAAAAAAAA7D      33.1348  41.75    1212     1.15     0

AAAAF0           AA1              AAAAAAAAA70      30.8118  26.24    952.67   1.69     0

AAAAF1           AA1              AAAAAAAAA71      107.871  29.66    1656     1.4      0

AAAAF2           AA1              AAAAAAAAA9H      111.669  31.99    1299     1.82     0

AAAAF3           AA1              AAAAAAAAA9E      45.6354  43.93    1118.33  1.65     0

AAAAF4           AA1              AAAAAAAAA9O      15.8221  48.36    664.33   2.78     0

AAAAF5           AA1              AAAAAAAAA9_      48.8949  49.36    1082.33  1.62     0

AAAAF6           AA1              AAAAAAAAA9G      11.8179  50.48    545.67   0.48     0
AAAAAA-          AA1              AAAAAAAAAAB6     0        0        0        0        0
AAAAAA_          AA1              AAAAAAAAA9W      0        0        0        0        0

AAAAF7           AAAAAAAAAAAAAAAAAAAAA1 AAAAAAAAA81 252.519 43.06    3200.5   1.32     0

AAAAF8           AAAAAAAAAAAAAAAAAAAAA1 AAAAAAAABD8 335.001 37.05    3200.5   1.32     0

AAAAF9           AAAAAAAAAAAAAAAAAAAAA1 AAAAAAAAA82 109.643 32.11    2013.75  1.81     0

AAAAF-           AAAAAAAAAAAAAAAAAAAAA2 AAAAAAAAA8J 15.3794 16.77    699      9.3      0

AAAAF_           AAAAAAAAAAAAAAAAAAAAA2 AAAAAAAAA8J 37.4512 41.45    418.25   1.71     0

AAAAG0           AAAAAAAAAAAAAAAAAAAAA2 AAAAAAAAA8Q 58.059  27.76    1802.5   5.78     0

AAAAG1           AAAAAAAAAAAAAAAAAAAAA0 AAAAAAAAAF- 54.1477 39.43    1014.33  1.44     0

AAAAG2           AAAAAAAAAAAAAAAAAAAAA0 AAAAAAAAAF- 19.967  37.19    658.67   1.27     0

AAAAG3           AAAAAAAAAAAAAAAAAAAAA0 AAAAAAAAAAAAB1 188.063 22.27 2018.67  1.27     0

AAAAG4           AAAAAAAAAAAAAAAAAAAAA0 AAAAAAAAAAA7 105.564 17.62   1215     1.53     0

AAAAG5           AAAAAAAAAAAAAAAAAAAAA0 AAAAAAAAAE2 30.7679 21.23    1735.001 2.76     0

AAAAG6           AAAAAAAAAAAAAAAAAAAAA0 AAAAAAAAA4G 72.5755 55.26    3109.999 1.59     0

AAAAG7           AAAAAAAAAAAAAAAAAAAAA0 AAAAAAAAA4G 77.6484 42.1     1779.67  1.99     0

AAAAG8           AAAAAAAAAAAAAAAAAAAAA0 AAAAAAAAA4G 122.553 27.49    2688     1.68     0
AAAAAB0          AAAAAAAAAAAAAAAAAAAAA0 AAAAAAAAA4E 0       0        0        0        0

AAAAG9           AA1              AAAAAAAAA7J      150.195  25.04    2446     1.16     0

AAAAG-           AA1              AAAAAAAAA7K      56.5691  19.58    1257.67  1.41     0

AAAAG_           AA1              AAAAAAAAA78      39.0304  25.3     777.33   1.96     0

AAAAH0           AA1              AAAAAAAAA8D      122.763  34.38    1826     1.33     0

AAAAH1           AA1              AAAAAAAAA8H      109.816  36.55    1937.33  4.17     0

AAAAH2           AA1              AAAAAAAAA1N      14.6639  42.98    622.67   3.65     0

AAAAH3           AA1              AAAAAAAAAU_      71.5134  17.612   2573.823 1.88     0

AAAAH4           AA1              AAAAAAAAAZ5      63.7105  17.659   2402.476 2.87     0

AAAAH5           AA1              AAAAAAAAA0C      27.2971  10       1524.935 5.32     0

AAAAH6           AA1              AAAAAAAAAZ_      34.729   5.756    1074.074 4.19     0

AAAAH7           AA1              AAAAAAAAAR3      65.6784  21.26    932.33   0.59     0

AAAAH8           AA1              AAAAAAAAA0A      100.868  15.1     1199.25  3.99     0

AAAAH9           AA1              AAAAAAAAAQ3      0        0        0        0        0

AAAAH-           AA1              AAAAAAAAAAAAAAA6 0        0        0        0        0

AAAAH_           AA1              AAAAAAAAA0F      0        0        0        0        0

AAAAI0           AA1              AAAAAAAAAZ0      0        0        0        0        0

AAAAI1           AA1              AAAAAAAAAW-      0        0        0        0        0

AAAAI2           AA1              AAAAAAAAAX6      0        0        0        0        0

AAAAI3           AA1              AAAAAAAAAX8      0        0        0        0        0

AAAAI4           AA0              AAAAAAAAA3Z      99.6552  20.68    2504.251 2.11     0

AAAAI5           AA0              AAAAAAAAAT5      76.7294  21.14    2504.25  2.11     0

AAAAI6           AAAAAAAAAAAAAAAAAAAAA0 AAAAAAAAAG4 61.5158 11.03    1494     1.69     0

AAAAI7           AA1              AAAAAAAAAC9      39.023   32.93    505.67   6.64     0

AAAAI8           AA1              AAAAAAAAAC7      23.9619  38.89    669.33   5.82     0

AAAAI9           AA1              AAAAAAAABD6      27.6365  32.23    914.75   8.58     0

AAAAI-           AA1              AAAAAAAAA16      3.24602  30.51    350      5.14     0

AAAAI_           AA1              AAAAAAAAAS8      45.6329  25.16    1029.33  3.39     0

AAAAJ0           AA1              AAAAAAAAA0Q      127.93   20.38    1487     3.39     0
AAAA0            AAAAAAAAAAAAAAAAAAAAA3 AAAAAAAAA-W 0       0        0        0        0
AAAA1            AAAAAAAAAAAAAAAAAAAAA3 AAAAAAAAA-W 0       0        0        0        0
AAAA2            AAAAAAAAAAAAAAAAAAAAA3 AAAAAAAAA-W 0       0        0        0        0
AAAA3            AAAAAAAAAAAAAAAAAAAAA3 AAAAAAAAA-W 0       0        0        0        0
AAAA4            AAAAAAAAAAAAAAAAAAAAA3 AAAAAAAAA-W 0       0        0        0        0
AAAA5            AAAAAAAAAAAAAAAAAAAAA3 AAAAAAAAA-W 0       0        0        0        0
AAAA6            AAAAAAAAAAAAAAAAAAAAA3 AAAAAAAAA-W 0       0        0        0        0
AAAA7            AAAAAAAAAAAAAAAAAAAAA3 AAAAAAAAA-U 0       0        0        0        0
AAAA8            AAAAAAAAAAAAAAAAAAAAA3 AAAAAAAAA-U 0       0        0        0        0
AAAA9            AAAAAAAAAAAAAAAAAAAAA3 AAAAAAAAA-U 0       0        0        0        0
AAAA-            AA1              AAAAAAAAAM8      0        0        0        0        0
AAAA_            AAAAAAAAAAAAAAAAAAAAA2 AAAAAAAAA8J 0       0        0        0        0
AAAB0            AAAAAAAAAAAAAAAAAAAAA2 AAAAAAAAA8J 0       0        0        0        0
AAAB1            AAAAAAAAAAAAAAAAAAAAA2 AAAAAAAAA8J 0       0        0        0        0
AAAB2            AAAAAAAAAAAAAAAAAAAAA2 AAAAAAAAA8J 0       0        0        0        0
AAAB3            AAAAAAAAAAAAAAAAAAAAA2 AAAAAAAAA8J 0       0        0        0        0
AAAB4            AAAAAAAAAAAAAAAAAAAAA2 AAAAAAAAA8J 0       0        0        0        0
AAAB5            AAAAAAAAAAAAAAAAAAAAA2 AAAAAAAAA8J 0       0        0        0        0
AAAB6            AAAAAAAAAAAAAAAAAAAAA2 AAAAAAAAA8J 0       0        0        0        0
AAAB7            AAAAAAAAAAAAAAAAAAAAA2 AAAAAAAAA8J 0       0        0        0        0
AAAB8            AAAAAAAAAAAAAAAAAAAAA2 AAAAAAAAA8J 0       0        0        0        0
AAAB9            AAAAAAAAAAAAAAAAAAAAA1 AAAAAAAAA83 0       0        0        0        0
AAAAAAA0         AAAAAAAAAAAAAAAAAAAAA1 AAAAAAAAA7G 0       0        0        0        0
AAAAAAA1         AAAAAAAAAAAAAAAAAAAAA1 AAAAAAAAA7G 0       0        0        0        0
AAAAAAA2         AAAAAAAAAAAAAAAAAAAAA1 AAAAAAAAA-0 0       0        0        0        0
AAAAAAA3         AAAAAAAAAAAAAAAAAAAAA1 AAAAAAAAA-0 0       0        0        0        0
AAAAAAA4         AAAAAAAAAAAAAAAAAAAAA1 AAAAAAAAA-0 0       0        0        0        0
AAAAAAA5         AAAAAAAAAAAAAAAAAAAAA1 AAAAAAAAA-0 0       0        0        0        0
AAAAAAA6         AAAAAAAAAAAAAAAAAAAAA1 AAAAAAAAA-0 0       0        0        0        0
AAAAAAA7         AAAAAAAAAAAAAAAAAAAAA1 AAAAAAAAA-0 0       0        0        0        0
AAAAAAAAAAAAA0   AAAAAAAAAAAAAAAAAAAAA3 AAAAAAAAA-X 0       0        0        0        0
AAAAAAAAAAAAA1   AAAAAAAAAAAAAAAAAAAAA3 AAAAAAAAA-W 0       0        0        0        0
AAAAAAAAAAAAA2   AAAAAAAAAAAAAAAAAAAAA3 AAAAAAAAA-Q 0       0        0        0        0
AAAAAAAAAAAAAA0  AAAAAAAAAAAAAAAAAAAAA0 AAAAAAAAA5H 0       0        0        0        0
AAAAAAAAAAAAAA1  AAAAAAAAAAAAAAAAAAAAA0 AAAAAAAAA5H 0       0        0        0        0
AAAAAAAAAAAAAA2  AAAAAAAAAAAAAAAAAAAAA0 AAAAL6     0        0        0        0        0
AAAAAAAAAAAAAA3  AAAAAAAAAAAAAAAAAAAAA0 AAAAL6     0        0        0        0        0
AAAAAAAAAAAAAA4  AA0              AAAAAAAAAL3      0        0        0        0        0

AAAAAAAAAAAAAA5  AA0              AAAAAAAAAL3      110.712  16.2     2000     0.15     0

AAAAAAAAAAAAAA6  AA0              AAAAAAAAAL3      59.031   16.2     1295     1.07     0

AAAAAAAAAAAAAA7  AA0              AAAAAAAAA27      0        0        0        0        0

AAAAAAAAAAAAAA8  AA0              AAAAAAAAA27      686.932  18       7119.999 1.2      0

AAAAAAAAAAAAAA9  AA0              AAAAAAAAA27      88.0346  15       2500     2.8      0

AAAAAAAAAAAAAA-  AA0              AAAAAAAAA27      64.8194  21       1750.001 0.6      0

AAAAAAAAAAAAAA_  AA0              AAAAAAAAA27      33.2164  9        1883     3.3      0

AAAAAAAAAAAAAB0  AA0              AAAAAAAAA27      48.8108  21       600      4.77     0

AAAAAAAAAAAAAB1  AA0              AAAAAAAAA27      8.87775  30       683      1.76     0
AAAAJ1           AA1              AAAAAAAAAQ7      0        0        0        0        0
AAAAJ2           AA1              AAAAAAAAAS6      0        0        0        0        0
AAAAAAA8         AA1              AAAAAAAAAO6      0        0        0        0        0
AAAAJ3           AA1              AAAAAAAAAW6      0        0        0        0        0
AAAAJ4           AA1              AAAAAAAABD7      0        0        0        0        0
AAAAJ5           AA1              AAAAAAAAAX0      0        0        0        0        0
AAAAJ6           AA1              AAAAAAAAA1V      0        0        0        0        0
AAAB-            AAAAAAAAAAAAAAAAAAAAA1 AAAAAAAAA7H 0       0        0        0        0
AAAB_            AAAAAAAAAAAAAAAAAAAAA1 AAAAAAAAA7H 0       0        0        0        0
AAAC0            AAAAAAAAAAAAAAAAAAAAA1 AAAAAAAAA7H 0       0        0        0        0
AAAC1            AAAAAAAAAAAAAAAAAAAAA1 AAAAAAAAA7H 0       0        0        0        0
AAAC2            AAAAAAAAAAAAAAAAAAAAA1 AAAAAAAAA7H 0       0        0        0        0
AAAC3            AAAAAAAAAAAAAAAAAAAAA1 AAAAAAAAA7H 0       0        0        0        0
AAAC4            AAAAAAAAAAAAAAAAAAAAA1 AAAAAAAAA7H 0       0        0        0        0
AAAC5            AAAAAAAAAAAAAAAAAAAAA1 AAAAAAAAA7H 0       0        0        0        0
AAAC6            AAAAAAAAAAAAAAAAAAAAA1 AAAAAAAAA7H 0       0        0        0        0
AAAC7            AAAAAAAAAAAAAAAAAAAAA1 AAAAAAAAA7H 0       0        0        0        0
AAAC8            AAAAAAAAAAAAAAAAAAAAA1 AAAAAAAAA7H 0       0        0        0        0
AAAC9            AAAAAAAAAAAAAAAAAAAAA1 AAAAAAAAA7H 0       0        0        0        0
AAAC-            AAAAAAAAAAAAAAAAAAAAA0 AAAAL6     0        0        0        0        0
AAAC_            AAAAAAAAAAAAAAAAAAAAA0 AAAAL6     0        0        0        0        0
AAAD0            AAAAAAAAAAAAAAAAAAAAA0 AAAAL6     0        0        0        0        0
AAAAAAAAA0       AAAAAAAAAAAAAAAAAAAAA3 AAAAAAAAA-Q 0       0        0        0        0
AAAAAAAAA1       AAAAAAAAAAAAAAAAAAAAA3 AAAAAAAAA-Q 0       0        0        0        0
AAAAAAAAA2       AAAAAAAAAAAAAAAAAAAAA3 AAAAAAAAA-Q 0       0        0        0        0
AAAAAAA9         AAAAAAAAAAAAAAAAAAAAA0 AAAAL6     0        0        0        0        0
AAAAAB1          AAAAAAAAAAAAAAAAAAAAA0 AAAAAAAAA29 0       0        0        0        0

AAAAJ7           AA0              AAAAAAAAAL3      63.8542  17.94    1009.67  0.51     0
AAAAJ8           AA1              AAAAAAAAAD-      0        0        0        0        0

AAAAJ9           AA0              AAAAAAAAA27      117.144  13.41    2106     4.7      0

AAAAJ-           AA0              AAAAAAAAA27      45.3624  13.4     1124.67  9.26     0

AAAAJ_           AA0              AAAAAAAAA27      47.106   21       650      4.77     0

AAAAK0           AA0              AAAAAAAAA27      108.109  14.33    2999.999 3.4      0
AAAD1            AAAAAAAAAAAAAAAAAAAAA3 AAAAAAAAA-W 0       0        0        0        0
AAAD2            AAAAAAAAAAAAAAAAAAAAA3 AAAAAAAAA-W 0       0        0        0        0
AAAD3            AAAAAAAAAAAAAAAAAAAAA3 AAAAAAAAA-W 0       0        0        0        0
AAAD4            AAAAAAAAAAAAAAAAAAAAA3 AAAAAAAAA-W 0       0        0        0        0
AAAD5            AAAAAAAAAAAAAAAAAAAAA3 AAAAAAAAA-W 0       0        0        0        0
AAAAK1           AAAAAAAAAAAAAAAAAAAAA0 AAAAAAAAA5I 0       0        0        0        0
AAAAK2           AAAAAAAAAAAAAAAAAAAAA0 AAAAAAAAA5I 0       0        0        0        0
AAAAK3           AAAAAAAAAAAAAAAAAAAAA0 AAAAAAAAA5I 0       0        0        0        0
AAAAK4           AAAAAAAAAAAAAAAAAAAAA0 AAAAAAAAA5I 0       0        0        0        0
AAAAK5           AAAAAAAAAAAAAAAAAAAAA0 AAAAAAAAA5I 0       0        0        0        0
AAAAK6           AAAAAAAAAAAAAAAAAAAAA0 AAAAAAAAA5I 0       0        0        0        0
AAAAK7           AAAAAAAAAAAAAAAAAAAAA0 AAAAAAAAA5I 0       0        0        0        0
AAAAK8           AAAAAAAAAAAAAAAAAAAAA0 AAAAAAAAA-6 0       0        0        0        0
AAAAK9           AAAAAAAAAAAAAAAAAAAAA0 AAAAAAAAA50 0       0        0        0        0
AAAAK-           AAAAAAAAAAAAAAAAAAAAA0 AAAAAAAAA5H 0       0        0        0        0
AAAAK_           AAAAAAAAAAAAAAAAAAAAA0 AAAAAAAAA5H 0       0        0        0        0
AAAD6            AAAAAAAAAAAAAAAAAAAAA3 AAAAAAAAA-R 0       0        0        0        0
AAAD7            AAAAAAAAAAAAAAAAAAAAA3 AAAAAAAAA-R 0       0        0        0        0
AAAD8            AAAAAAAAAAAAAAAAAAAAA3 AAAAAAAAA-R 0       0        0        0        0
AAAD9            AAAAAAAAAAAAAAAAAAAAA3 AAAAAAAAA-R 0       0        0        0        0
AAAD-            AAAAAAAAAAAAAAAAAAAAA3 AAAAAAAAA-R 0       0        0        0        0
AAAD_            AAAAAAAAAAAAAAAAAAAAA3 AAAAAAAAA-R 0       0        0        0        0
AAAE0            AAAAAAAAAAAAAAAAAAAAA2 AAAAAAAAA-M 0       0        0        0        0
AAAE1            AAAAAAAAAAAAAAAAAAAAA2 AAAAAAAAA8P 0       0        0        0        0
AAAE2            AAAAAAAAAAAAAAAAAAAAA2 AAAAAAAAA8Z 0       0        0        0        0

[SUBAREAS]


AAAAA0           0.013      0.15       0.05       0.15       10         OUTLET
AAAAA1           0.013      0.15       0.05       0.15       10         OUTLET
AAAAA2           0.013      0.15       0.05       0.15       10         OUTLET
AAAAA3           0.013      0.15       0.05       0.15       10         OUTLET
AAAAA4           0.013      0.15       0.05       0.15       10         OUTLET
AAAAA5           0.013      0.15       0.05       0.15       10         OUTLET
AAAAA6           0.013      0.15       0.05       0.15       10         OUTLET
AAAAA7           0.013      0.15       0.05       0.15       10         OUTLET
AAAAA8           0.013      0.15       0.05       0.15       10         OUTLET
AAAAA9           0.013      0.15       0.05       0.15       10         OUTLET
AAAAA-           0.013      0.15       0.05       0.15       10         OUTLET
AAAAA_           0.013      0.15       0.05       0.15       10         OUTLET
AAAAB0           0.013      0.15       0.05       0.15       10         OUTLET
AAAAB1           0.013      0.15       0.05       0.15       10         OUTLET
AAAAB2           0.013      0.15       0.05       0.15       10         OUTLET
AAAAB3           0.013      0.15       0.05       0.15       10         OUTLET
AAAAB4           0.013      0.15       0.05       0.15       10         OUTLET
AAAAB5           0.013      0.15       0.05       0.15       10         OUTLET
AAAAB6           0.013      0.15       0.05       0.15       10         OUTLET
AAAAB7           0.013      0.15       0.05       0.15       10         OUTLET
AAAAB8           0.013      0.15       0.05       0.15       10         OUTLET
AAAAB9           0.013      0.15       0.05       0.15       10         OUTLET
AAAAB-           0.013      0.15       0.05       0.15       10         OUTLET
AAAAB_           0.013      0.15       0.05       0.15       10         OUTLET
AAAAC0           0.013      0.15       0.05       0.15       10         OUTLET
AAAAC1           0.013      0.15       0.05       0.15       10         OUTLET
AAAAC2           0.013      0.15       0.05       0.15       10         OUTLET
AAAAC3           0.013      0.15       0.05       0.15       10         OUTLET
AAAAC4           0.013      0.15       0.05       0.15       10         OUTLET
AAAAC5           0.013      0.15       0.05       0.15       10         OUTLET
AAAAC6           0.013      0.15       0.05       0.15       10         OUTLET
AAAAC7           0.013      0.15       0.05       0.15       10         OUTLET
AAAAAA0          0.013      0.15       0.15       0.35       10         OUTLET
AAAAC8           0.013      0.15       0.05       0.15       10         OUTLET
AAAAC9           0.013      0.15       0.05       0.15       10         OUTLET
AAAAC-           0.013      0.15       0.05       0.15       10         OUTLET
AAAAC_           0.013      0.15       0.05       0.15       10         OUTLET
AAAAD0           0.013      0.15       0.05       0.15       10         OUTLET
AAAAD1           0.013      0.15       0.05       0.15       10         OUTLET
AAAAD2           0.013      0.15       0.05       0.15       10         OUTLET
AAAAD3           0.013      0.15       0.05       0.15       10         OUTLET
AAAAD4           0.013      0.15       0.05       0.15       10         OUTLET
AAAAD5           0.013      0.15       0.05       0.15       10         OUTLET
AAAAD6           0.013      0.15       0.05       0.15       10         OUTLET
AAAAD7           0.013      0.15       0.05       0.15       10         OUTLET
AAAAD8           0.013      0.15       0.05       0.15       10         OUTLET
AAAAD9           0.013      0.15       0.05       0.15       10         OUTLET
AAAAD-           0.013      0.15       0.05       0.15       10         OUTLET
AAAAD_           0.013      0.15       0.05       0.15       10         OUTLET
AAAAE0           0.013      0.15       0.2        0.15       10         OUTLET
AAAAAA1          0.013      0.15       0.05       0.15       10         OUTLET
AAAAAA2          0.013      0.15       0.05       0.15       10         OUTLET
AAAAAA3          0.025      0.25       0.2        0.25       10         OUTLET
AAAAAA4          0.025      0.25       0.2        0.25       10         OUTLET
AAAAAA5          0.013      0.15       0.05       0.15       10         OUTLET
AAAAAA6          0.013      0.15       0.05       0.15       10         OUTLET
AAAAAA7          0.013      0.15       0.05       0.15       10         OUTLET
AAAAAA8          0.013      0.15       0.05       0.15       10         OUTLET
AAAAE1           0.013      0.15       0.2        0.15       10         OUTLET
AAAAE2           0.013      0.15       0.2        0.15       10         OUTLET
AAAAE3           0.013      0.15       0.2        0.15       10         OUTLET
AAAAE4           0.013      0.15       0.2        0.15       10         OUTLET
AAAAE5           0.013      0.15       0.2        0.15       10         OUTLET
AAAAE6           0.013      0.15       0.2        0.15       10         OUTLET
AAAAE7           0.013      0.15       0.2        0.15       10         OUTLET
AAAAE8           0.013      0.15       0.2        0.15       10         OUTLET
AAAAE9           0.013      0.15       0.2        0.15       10         OUTLET
AAAAE-           0.013      0.15       0.05       0.15       10         OUTLET
AAAAAA9          0.013      0.15       0.05       0.15       10         OUTLET
AAAAE_           0.013      0.15       0.05       0.15       10         OUTLET
AAAAF0           0.013      0.15       0.05       0.15       10         OUTLET
AAAAF1           0.013      0.15       0.05       0.15       10         OUTLET
AAAAF2           0.013      0.15       0.05       0.15       10         OUTLET
AAAAF3           0.013      0.15       0.05       0.15       10         OUTLET
AAAAF4           0.013      0.15       0.05       0.15       10         OUTLET
AAAAF5           0.013      0.15       0.05       0.15       10         OUTLET
AAAAF6           0.013      0.15       0.05       0.15       10         OUTLET
AAAAAA-          0.013      0.15       0.05       0.15       10         OUTLET
AAAAAA_          0.013      0.15       0.05       0.15       10         OUTLET
AAAAF7           0.013      0.15       0.05       0.15       10         OUTLET
AAAAF8           0.013      0.15       0.05       0.15       10         OUTLET
AAAAF9           0.013      0.15       0.05       0.15       10         OUTLET
AAAAF-           0.013      0.15       0.05       0.15       10         OUTLET
AAAAF_           0.013      0.15       0.05       0.15       10         OUTLET
AAAAG0           0.013      0.15       0.02       0.15       10         OUTLET
AAAAG1           0.013      0.15       0.2        0.15       10         OUTLET
AAAAG2           0.013      0.15       0.2        0.15       10         OUTLET
AAAAG3           0.013      0.15       0.2        0.15       10         OUTLET
AAAAG4           0.013      0.15       0.2        0.15       10         OUTLET
AAAAG5           0.013      0.15       0.2        0.15       10         OUTLET
AAAAG6           0.013      0.15       0.05       0.15       10         OUTLET
AAAAG7           0.013      0.15       0.05       0.15       10         OUTLET
AAAAG8           0.013      0.15       0.05       0.15       10         OUTLET
AAAAAB0          0.013      0.15       0.05       0.15       10         OUTLET
AAAAG9           0.013      0.15       0.05       0.15       10         OUTLET
AAAAG-           0.013      0.15       0.05       0.15       10         OUTLET
AAAAG_           0.013      0.15       0.05       0.15       10         OUTLET
AAAAH0           0.013      0.15       0.05       0.15       10         OUTLET
AAAAH1           0.013      0.15       0.05       0.15       10         OUTLET
AAAAH2           0.013      0.15       0.05       0.15       10         OUTLET
AAAAH3           0.013      0.15       0.05       0.15       10         OUTLET
AAAAH4           0.013      0.15       0.05       0.15       10         OUTLET
AAAAH5           0.013      0.15       0.05       0.15       10         OUTLET
AAAAH6           0.013      0.15       0.05       0.15       10         OUTLET
AAAAH7           0.013      0.15       0.05       0.15       10         OUTLET
AAAAH8           0.013      0.15       0.05       0.15       10         OUTLET
AAAAH9           0.013      0.15       0.05       0.15       10         OUTLET
AAAAH-           0.013      0.15       0.05       0.15       10         OUTLET
AAAAH_           0.013      0.15       0.05       0.15       10         OUTLET
AAAAI0           0.013      0.15       0.05       0.15       10         OUTLET
AAAAI1           0.013      0.15       0.05       0.15       10         OUTLET
AAAAI2           0.013      0.15       0.05       0.15       10         OUTLET
AAAAI3           0.013      0.15       0.05       0.15       10         OUTLET
AAAAI4           0.013      0.15       0.05       0.15       10         OUTLET
AAAAI5           0.013      0.15       0.05       0.15       10         OUTLET
AAAAI6           0.013      0.15       0.2        0.15       10         OUTLET
AAAAI7           0.013      0.15       0.05       0.15       10         OUTLET
AAAAI8           0.013      0.15       0.05       0.15       10         OUTLET
AAAAI9           0.013      0.15       0.05       0.15       10         OUTLET
AAAAI-           0.013      0.15       0.05       0.15       10         OUTLET
AAAAI_           0.013      0.15       0.05       0.15       10         OUTLET
AAAAJ0           0.013      0.15       0.05       0.15       10         OUTLET
AAAA0            0.013      0.15       0.05       0.15       10         OUTLET
AAAA1            0.013      0.15       0.05       0.15       10         OUTLET
AAAA2            0.013      0.15       0.05       0.15       10         OUTLET
AAAA3            0.013      0.15       0.05       0.15       10         OUTLET
AAAA4            0.013      0.15       0.05       0.15       10         OUTLET
AAAA5            0.013      0.15       0.05       0.15       10         OUTLET
AAAA6            0.013      0.15       0.05       0.15       10         OUTLET
AAAA7            0.013      0.15       0.05       0.15       10         OUTLET
AAAA8            0.013      0.15       0.05       0.15       10         OUTLET
AAAA9            0.013      0.15       0.05       0.15       10         OUTLET
AAAA-            0.013      0.15       0.05       0.15       10         OUTLET
AAAA_            0.013      0.15       0.05       0.15       10         OUTLET
AAAB0            0.013      0.15       0.05       0.15       10         OUTLET
AAAB1            0.013      0.15       0.05       0.15       10         OUTLET
AAAB2            0.013      0.15       0.05       0.15       10         OUTLET
AAAB3            0.013      0.15       0.05       0.15       10         OUTLET
AAAB4            0.013      0.15       0.05       0.15       10         OUTLET
AAAB5            0.013      0.15       0.05       0.15       10         OUTLET
AAAB6            0.013      0.15       0.05       0.15       10         OUTLET
AAAB7            0.013      0.15       0.05       0.15       10         OUTLET
AAAB8            0.013      0.15       0.05       0.15       10         OUTLET
AAAB9            0.013      0.15       0.05       0.15       10         OUTLET
AAAAAAA0         0.013      0.15       0.05       0.15       10         OUTLET
AAAAAAA1         0.013      0.15       0.05       0.15       10         OUTLET
AAAAAAA2         0.013      0.15       0.05       0.15       10         OUTLET
AAAAAAA3         0.013      0.15       0.05       0.15       10         OUTLET
AAAAAAA4         0.013      0.15       0.05       0.15       10         OUTLET
AAAAAAA5         0.013      0.15       0.05       0.15       10         OUTLET
AAAAAAA6         0.013      0.15       0.05       0.15       10         OUTLET
AAAAAAA7         0.013      0.15       0.05       0.15       10         OUTLET
AAAAAAAAAAAAA0   0.013      0.15       0.05       0.15       10         OUTLET
AAAAAAAAAAAAA1   0.013      0.15       0.05       0.15       10         OUTLET
AAAAAAAAAAAAA2   0.013      0.15       0.05       0.15       10         OUTLET
AAAAAAAAAAAAAA0  0.013      0.15       0.05       0.15       10         OUTLET
AAAAAAAAAAAAAA1  0.013      0.15       0.05       0.15       10         OUTLET
AAAAAAAAAAAAAA2  0.013      0.15       0.05       0.15       10         OUTLET
AAAAAAAAAAAAAA3  0.013      0.15       0.05       0.15       10         OUTLET
AAAAAAAAAAAAAA4  0.013      0.15       0.05       0.15       10         OUTLET
AAAAAAAAAAAAAA5  0.013      0.15       0.05       0.15       10         OUTLET
AAAAAAAAAAAAAA6  0.013      0.15       0.05       0.15       10         OUTLET
AAAAAAAAAAAAAA7  0.013      0.15       0.05       0.15       10         OUTLET
AAAAAAAAAAAAAA8  0.025      0.25       0.2        0.25       10         OUTLET
AAAAAAAAAAAAAA9  0.025      0.25       0.2        0.25       10         OUTLET
AAAAAAAAAAAAAA-  0.025      0.25       0.2        0.25       10         OUTLET
AAAAAAAAAAAAAA_  0.025      0.25       0.2        0.25       10         OUTLET
AAAAAAAAAAAAAB0  0.025      0.25       0.2        0.25       10         OUTLET
AAAAAAAAAAAAAB1  0.025      0.25       0.2        0.25       10         OUTLET
AAAAJ1           0.013      0.15       0.05       0.15       10         OUTLET
AAAAJ2           0.013      0.15       0.05       0.15       10         OUTLET
AAAAAAA8         0.013      0.15       0.05       0.15       10         OUTLET
AAAAJ3           0.013      0.15       0.05       0.15       10         OUTLET
AAAAJ4           0.013      0.15       0.05       0.15       25         OUTLET
AAAAJ5           0.013      0.15       0.05       0.15       10         OUTLET
AAAAJ6           0.013      0.15       0.05       0.15       10         OUTLET
AAAB-            0.013      0.15       0.05       0.15       10         OUTLET
AAAB_            0.013      0.15       0.05       0.15       10         OUTLET
AAAC0            0.013      0.15       0.05       0.15       10         OUTLET
AAAC1            0.013      0.15       0.05       0.15       10         OUTLET
AAAC2            0.013      0.15       0.05       0.15       10         OUTLET
AAAC3            0.013      0.15       0.05       0.15       10         OUTLET
AAAC4            0.013      0.15       0.05       0.15       10         OUTLET
AAAC5            0.013      0.15       0.05       0.15       10         OUTLET
AAAC6            0.013      0.15       0.05       0.15       10         OUTLET
AAAC7            0.013      0.15       0.05       0.15       10         OUTLET
AAAC8            0.013      0.15       0.05       0.15       10         OUTLET
AAAC9            0.013      0.15       0.05       0.15       10         OUTLET
AAAC-            0.013      0.15       0.05       0.15       10         OUTLET
AAAC_            0.013      0.15       0.05       0.15       10         OUTLET
AAAD0            0.013      0.15       0.05       0.15       10         OUTLET
AAAAAAAAA0       0.013      0.15       0.05       0.15       10         OUTLET
AAAAAAAAA1       0.013      0.15       0.05       0.15       10         OUTLET
AAAAAAAAA2       0.013      0.15       0.05       0.15       10         OUTLET
AAAAAAA9         0.013      0.15       0.05       0.15       10         OUTLET
AAAAAB1          0.013      0.15       0.05       0.15       10         OUTLET
AAAAJ7           0.013      0.15       0.05       0.15       10         OUTLET
AAAAJ8           0.013      0.15       0.05       0.15       10         OUTLET
AAAAJ9           0.025      0.25       0.2        0.25       10         OUTLET
AAAAJ-           0.025      0.25       0.5        0.15       10         OUTLET
AAAAJ_           0.025      0.25       0.2        0.25       10         OUTLET
AAAAK0           0.025      0.25       0.2        0.25       10         OUTLET
AAAD1            0.013      0.15       0.05       0.15       10         OUTLET
AAAD2            0.013      0.15       0.05       0.15       10         OUTLET
AAAD3            0.013      0.15       0.05       0.15       10         OUTLET
AAAD4            0.013      0.15       0.05       0.15       10         OUTLET
AAAD5            0.013      0.15       0.05       0.15       10         OUTLET
AAAAK1           0.013      0.15       0.05       0.15       10         OUTLET
AAAAK2           0.013      0.15       0.05       0.15       10         OUTLET
AAAAK3           0.013      0.15       0.05       0.15       10         OUTLET
AAAAK4           0.013      0.15       0.05       0.15       10         OUTLET
AAAAK5           0.013      0.15       0.05       0.15       10         OUTLET
AAAAK6           0.013      0.15       0.05       0.15       10         OUTLET
AAAAK7           0.013      0.15       0.05       0.15       10         OUTLET
AAAAK8           0.013      0.15       0.05       0.15       10         OUTLET
AAAAK9           0.013      0.15       0.05       0.15       10         OUTLET
AAAAK-           0.013      0.15       0.05       0.15       10         OUTLET
AAAAK_           0.013      0.15       0.05       0.15       10         OUTLET
AAAD6            0.013      0.15       0.05       0.15       10         OUTLET
AAAD7            0.013      0.15       0.05       0.15       10         OUTLET
AAAD8            0.013      0.15       0.05       0.15       10         OUTLET
AAAD9            0.013      0.15       0.05       0.15       10         OUTLET
AAAD-            0.013      0.15       0.05       0.15       10         OUTLET
AAAD_            0.013      0.15       0.05       0.15       10         OUTLET
AAAE0            0.013      0.15       0.05       0.15       10         OUTLET
AAAE1            0.013      0.15       0.05       0.15       10         OUTLET
AAAE2            0.013      0.15       0.05       0.15       10         OUTLET

[INFILTRATION]


AAAAA0           2          0.2        4          7          10
AAAAA1           3          0.502      4          4.75       11.625
AAAAA2           3.25       0.62       4          6.25       11.25
AAAAA3           3.25       0.62       4          6.25       11.25
AAAAA4           2.833      0.48       4          6.5        10.833
AAAAA5           1.75       0.13       4          8.75       9.25
AAAAA6           1.833      0.153      4          8.167      9.5
AAAAA7           2.667      0.433      4          7.667      10.333
AAAAA8           2.9        0.508      4          7.1        10.7
AAAAA9           2.4        0.34       4          7.4        10.2
AAAAA-           2.4        0.34       4          7.4        10.2
AAAAA_           2.167      0.262      4          7.611      9.944
AAAAB0           2.25       0.293      4          7.916      9.917
AAAAB1           2.333      0.317      4          7.333      10.167
AAAAB2           2.429      0.333      4          6.714      10.5
AAAAB3           1.875      0.165      4          7.875      9.625
AAAAB4           3.2        0.592      4          5          11.6
AAAAB5           2.056      0.21       4          6.944      10.111
AAAAB6           1.917      0.185      4          8.083      9.667
AAAAB7           2.417      0.348      4          7.25       10.333
AAAAB8           2.5        0.378      4          7.3        10.4
AAAAB9           3.5        0.69       4          4.5        12
AAAAB-           2.5        0.355      4          6.666      10.584
AAAAB_           2.4        0.34       4          7.4        10.2
AAAAC0           2          0.2        4          7          10
AAAAC1           2.143      0.24       4          6.858      10.286
AAAAC2           2          0.212      4          7.75       9.875
AAAAC3           2.417      0.348      4          7.25       10.333
AAAAC4           2          0.2        4          7          10
AAAAC5           2          0.2        4          7          10
AAAAC6           2.167      0.247      4          6.834      10.333
AAAAC7           2.571      0.38       4          6.143      10.857
AAAAAA0          2.571      0.38       4          6.143      10.857
AAAAC8           3.556      0.687      4          3.889      12.333
AAAAC9           3          0.535      4          5.834      11.25
AAAAC-           3.208      0.573      4          4.625      11.833
AAAAC_           3.417      0.667      4          5.083      11.75
AAAAD0           3.312      0.608      4          4.562      11.938
AAAAD1           3.214      0.593      4          5.786      11.429
AAAAD2           1.75       0.13       4          8.75       9.25
AAAAD3           3.038      0.522      4          5.346      11.461
AAAAD4           4          0.805      4          2.5        13.25
AAAAD5           3.167      0.557      4          5.167      11.667
AAAAD6           2.75       0.417      4          5.417      11.25
AAAAD7           2.318      0.297      4          6.5        10.454
AAAAD8           1.5        0.06       4          10.5       8.5
AAAAD9           1.5        0.06       4          10.5       8.5
AAAAD-           2.9        0.508      4          7.1        10.7
AAAAD_           1.5        0.06       4          10.5       8.5
AAAAE0           1.5        0.06       4          10.5       8.5
AAAAAA1          2          0.2        4          7          10
AAAAAA2          2.5        0.315      4          5          11.25
AAAAAA3          2.625      0.41       4          6.625      10.625
AAAAAA4          4.125      0.9        4          4.125      12.625
AAAAAA5          2.429      0.34       4          7.143      10.429
AAAAAA6          3          0.5        4          7          0
AAAAAA7          3          0.5        4          7          0
AAAAAA8          3          0.5        4          7          0
AAAAE1           1.5        0.06       4          10.5       8.5
AAAAE2           1.5        0.06       4          10.5       8.5
AAAAE3           2.625      0.415      4          6.875      10.575
AAAAE4           1.5        0.06       4          10.5       8.5
AAAAE5           2.833      0.48       4          6.5        10.833
AAAAE6           2.6        0.404      4          6.4        10.72
AAAAE7           2.625      0.41       4          6.625      10.625
AAAAE8           3          0.527      4          5.334      11.333
AAAAE9           3          0.533      4          5.667      11.267
AAAAE-           2.167      0.23       4          6.833      10.333
AAAAAA9          3          0.5        4          7          0
AAAAE_           2.167      0.27       4          8.5        9.667
AAAAF0           2.889      0.496      4          6.111      11
AAAAF1           2.571      0.383      4          6.857      10.571
AAAAF2           2.708      0.425      4          6.542      10.792
AAAAF3           2.667      0.433      4          7.667      10.333
AAAAF4           1.75       0.14       4          9.25       9.15
AAAAF5           3.25       0.62       4          6.25       11.25
AAAAF6           3.25       0.62       4          6.25       11.25
AAAAAA-          3          0.5        4          7          0
AAAAAA_          3          0.5        4          7          0
AAAAF7           2.4        0.34       4          7.4        10.2
AAAAF8           2.458      0.351      4          6.875      10.467
AAAAF9           2.25       0.262      4          6.25       10.575
AAAAF-           1.667      0.147      4          9.667      8.933
AAAAF_           1.75       0.16       4          9          9.2
AAAAG0           2          0.21       4          7.5        9.9
AAAAG1           2.625      0.41       4          6.625      10.625
AAAAG2           3.5        0.69       4          4.5        12
AAAAG3           2.6        0.406      4          6.6        10.7
AAAAG4           2.8        0.442      4          5.2        11.3
AAAAG5           2          0.21       4          7.5        9.9
AAAAG6           2.833      0.48       4          6.5        10.833
AAAAG7           3.5        0.69       4          4.5        12
AAAAG8           3.4        0.642      4          4.4        12.06
AAAAAB0          3          0.5        4          7          0
AAAAG9           1.667      0.107      4          9.333      9
AAAAG-           1.833      0.153      4          8.167      9.5
AAAAG_           3.1        0.564      4          5.7        11.3
AAAAH0           1.833      0.153      4          8.167      9.5
AAAAH1           3.25       0.62       4          6.25       11.25
AAAAH2           5          1.18       4          2          14
AAAAH3           2          0.2        4          7          10
AAAAH4           2.75       0.417      4          5.417      11.25
AAAAH5           2.667      0.353      4          4.333      11.667
AAAAH6           3.25       0.56       4          3.75       12.25
AAAAH7           3          0.502      4          4.75       11.625
AAAAH8           3.5        0.642      4          3.334      12.583
AAAAH9           2.5        0.315      4          5          11.25
AAAAH-           2.667      0.353      4          4.333      11.667
AAAAH_           2.5        0.315      4          5          11.25
AAAAI0           3.25       0.56       4          3.75       12.25
AAAAI1           2.9        0.46       4          5.1        11.5
AAAAI2           3.25       0.62       4          6.25       11.25
AAAAI3           5          1.18       4          2          14
AAAAI4           2.9        0.489      4          5.8        11.15
AAAAI5           2.583      0.378      4          6.083      10.833
AAAAI6           3.75       0.748      4          3.5        12.625
AAAAI7           1.929      0.173      4          7.928      9.714
AAAAI8           2          0.188      4          7.75       9.875
AAAAI9           2.062      0.211      4          6.938      10.125
AAAAI-           1.5        0.06       4          10.5       8.5
AAAAI_           2          0.2        4          7          10
AAAAJ0           3.6        0.684      4          3.4        12.6
AAAA0            3          0.5        4          7          0
AAAA1            3          0.5        4          7          0
AAAA2            3          0.5        4          7          0
AAAA3            3          0.5        4          7          0
AAAA4            3          0.5        4          7          0
AAAA5            3          0.5        4          7          0
AAAA6            3          0.5        4          7          0
AAAA7            3          0.5        4          7          0
AAAA8            3          0.5        4          7          0
AAAA9            3          0.5        4          7          0
AAAA-            3          0.5        4          7          0
AAAA_            3          0.5        4          7          0
AAAB0            3          0.5        4          7          0
AAAB1            3          0.5        4          7          0
AAAB2            3          0.5        4          7          0
AAAB3            3          0.5        4          7          0
AAAB4            3          0.5        4          7          0
AAAB5            3          0.5        4          7          0
AAAB6            3          0.5        4          7          0
AAAB7            3          0.5        4          7          0
AAAB8            3          0.5        4          7          0
AAAB9            3          0.5        4          7          0
AAAAAAA0         3          0.5        4          7          0
AAAAAAA1         3          0.5        4          7          0
AAAAAAA2         3          0.5        4          7          0
AAAAAAA3         3          0.5        4          7          0
AAAAAAA4         3          0.5        4          7          0
AAAAAAA5         3          0.5        4          7          0
AAAAAAA6         3          0.5        4          7          0
AAAAAAA7         3          0.5        4          7          0
AAAAAAAAAAAAA0   3          0.5        4          7          0
AAAAAAAAAAAAA1   3          0.5        4          7          0
AAAAAAAAAAAAA2   3          0.5        4          7          0
AAAAAAAAAAAAAA0  3          0.5        4          7          0
AAAAAAAAAAAAAA1  3          0.5        4          7          0
AAAAAAAAAAAAAA2  3          0.5        4          7          0
AAAAAAAAAAAAAA3  3          0.5        4          7          0
AAAAAAAAAAAAAA4  3          0.5        4          7          0
AAAAAAAAAAAAAA5  2          0.2        4          7          10
AAAAAAAAAAAAAA6  2          0.2        4          7          10
AAAAAAAAAAAAAA7  1.833      0.153      4          8.167      9.5
AAAAAAAAAAAAAA8  2.286      0.307      4          7.714      10.072
AAAAAAAAAAAAAA9  5          1.18       4          2          14
AAAAAAAAAAAAAA-  1.5        0.06       4          10.5       8.5
AAAAAAAAAAAAAA_  3.833      0.807      4          4.833      12.167
AAAAAAAAAAAAAB0  2.667      0.433      4          7.667      10.333
AAAAAAAAAAAAAB1  2.833      0.48       4          6.5        10.833
AAAAJ1           3          0.5        4          7          0
AAAAJ2           3          0.5        4          7          0
AAAAAAA8         3          0.5        4          7          0
AAAAJ3           3          0.5        4          7          0
AAAAJ4           3          0.5        4          7          0
AAAAJ5           3          0.5        4          7          0
AAAAJ6           3          0.5        4          7          0
AAAB-            3          0.5        4          7          0
AAAB_            3          0.5        4          7          0
AAAC0            3          0.5        4          7          0
AAAC1            3          0.5        4          7          0
AAAC2            3          0.5        4          7          0
AAAC3            3          0.5        4          7          0
AAAC4            3          0.5        4          7          0
AAAC5            3          0.5        4          7          0
AAAC6            3          0.5        4          7          0
AAAC7            3          0.5        4          7          0
AAAC8            3          0.5        4          7          0
AAAC9            3          0.5        4          7          0
AAAC-            3          0.5        4          7          0
AAAC_            3          0.5        4          7          0
AAAD0            3          0.5        4          7          0
AAAAAAAAA0       3          0.5        4          7          0
AAAAAAAAA1       3          0.5        4          7          0
AAAAAAAAA2       3          0.5        4          7          0
AAAAAAA9         3          0.5        4          7          0
AAAAAB1          3          0.5        4          7          0
AAAAJ7           2          0.2        4          7          10
AAAAJ8           3          0.5        4          7          0
AAAAJ9           2.5        0.368      4          6.853      10.53
AAAAJ-           3          0.527      4          6          11.222
AAAAJ_           2.357      0.334      4          7.643      10.214
AAAAK0           2.8        0.481      4          6.5        10.85
AAAD1            3          0.5        4          7          0
AAAD2            3          0.5        4          7          0
AAAD3            3          0.5        4          7          0
AAAD4            3          0.5        4          7          0
AAAD5            3          0.5        4          7          0
AAAAK1           3          0.5        4          7          0
AAAAK2           3          0.5        4          7          0
AAAAK3           3          0.5        4          7          0
AAAAK4           3          0.5        4          7          0
AAAAK5           3          0.5        4          7          0
AAAAK6           3          0.5        4          7          0
AAAAK7           3          0.5        4          7          0
AAAAK8           3          0.5        4          7          0
AAAAK9           3          0.5        4          7          0
AAAAK-           3          0.5        4          7          0
AAAAK_           3          0.5        4          7          0
AAAD6            3          0.5        4          7          0
AAAD7            3          0.5        4          7          0
AAAD8            3          0.5        4          7          0
AAAD9            3          0.5        4          7          0
AAAD-            3          0.5        4          7          0
AAAD_            3          0.5        4          7          0
AAAE0            3          0.5        4          7          0
AAAE1            3          0.5        4          7          0
AAAE2            3          0.5        4          7          0

[JUNCTIONS]



AAAE3            -0.21      22.68      0          0          0
AAAAAAAAA3       55.35      17         0          0          0

AAAAAAAAAAA0     -1.99      18.29      0          33.63      0

AAAAAAAAAA0      -1.89      19         0          32.89      0
AAAAAB2          2          14.5       0          0          0
AAAAAAAAA4       -1.5       24.5       0          50         0

AAAAAAAAAAAAAAAAAAA0 1.62   26.45      0          21.93      0
AAAAL0           0.9        21.1       0          0          0
AAAAAAAA0        1.79       16.25      0          0          0
AAAAAB3          0.8        21.2       0          0          0
AAAAAAAAA5       1.6        19.89      0          0          0

AAAAAAAAAA1      9.77       18.4       0          21.83      0

AAAAAAAAAA2      12.56      15.61      0          21.83      0
AAAAAAAAAA3      6.62       29.55      0          13.83      0

AAAAAAAAAA4      14.42      13.85      0          21.73      0

AAAAAAAAAA5      18.67      9.6        0          21.73      0
AAAAAAAAAAAAAAA0 0          20         0          10         0
AAAAAAAAAAAAAB2  3.43       20         0          50         0
AAAAAAAAAAAAA3   1.13       18         0          0          0
AAAAAAAA1        111.17     11.25      0          500        0

AAAAAAAAAA6      -1.8       22         0          29.8       0

AAAAAAAAAA7      28.22      16.83      0          0          0

AAAAL1           61.42      10.58      0          0          0

AAAAAAAAAAAAAAAAA0 -15.63   29.41      0          0          0
AA2              -1.5       23.09      0          0          0
AAAAAAAAAAAAAAAA0 104.25    23.57      0          50         0

AAAAAAAAAAAA0    30.2       21         0          0          0

AAAAL2           19.6       25.22      0          5.18       0
AAAAL3           51.45      16.55      0          0          0

AAAAL4           4.52       16.61      0          0          0
AAAAL5           48.77      13.23      0          0          0
AAAAL6           96.27      45.28      0          0          0

AAAAL7           0.19       14.33      0          0          0
AAAAAAAAAAAAAAAAA1 157      11.83      0          50         0

AAAAAAAAA6       3.09       13.58      0          0          0
AAAAAAAAAAAAAB3  2.42       14.25      0          0          0

AAAAAAAAAAAA1    4.56       12.11      0          0          0
AAAAAAAAA7       -0.23      17.9       0          0          0

AAAAAAAAAAAAAB4  -4.56      22.23      0          0          0

AAAAAAAAAAAAAB5  -8.27      25.94      0          0          0

AAAAAAAAAAAA2    0.77       16.9       0          0          0

AAAAAAAAA8       -6.83      27         0          0          0

AAAAAAAAAAAAAB6  -8.85      27.35      0          0          0

AAAAAAAAA9       55.47      8.87       0          0          0

AAAAAAAAAAAAAB7  54.91      9.43       0          0          0

AAAAAAAAAAAAA4   57.34      7          0          0          0
AAAAAAAAA-       54.53      9.14       0          0          0

AAAAAAAAAAAAAAA1 54.53      9.14       0          0          0

AAAAAAAAAAAAAB8  52.55      11.12      0          0          0

AAAAAAAAAAAAA5   55.63      8.04       0          0          0

AAAAAAAAA_       37.17      11.5       0          0          0

AAAAAAAAAAAAA6   36.47      12.2       0          0          0

AAAAAAAAAAAA3    36.77      11.9       0          0          0

AAAAAAAAB0       35.74      9.43       0          0          0
AAAAAAAAAAAAAB9  35.07      10.1       0          0          0
AAAAAAAAAAAA4    36.67      8.5        0          0          0

AAAAAAAAAAAAA7   67.05      20.2       0          0          0

AAAAAAAAAAAA5    67.05      20.2       0          0          0

AAAAAAAAB1       -4.53      20.53      0          0          0

AAAAAAAAB2       -0.33      15.5       0          0          0

AAAAAAAAAAAAAB-  -1.46      16.63      0          0          0

AAAAAAAAB3       46.96      8.71       0          50         0

AAAAAAAAAAAAAB_  43.75      14.92      0          0          0

AAAAAAAAAAAAA8   48.82      12.35      0          10         0

AAAAAAAAB4       52.59      11.33      0          0          0

AAAAAAAAAAAAAC0  46.63      17.29      0          0          0

AAAAAAAAAAAAA9   55         8.92       0          0          0

AAAAAAAAB5       55.84      11.83      0          0          0

AAAAAAAAAAAAAC1  52.04      15.63      0          0          0
AAAAAAAAAAAAA-   57.2       8.73       0          0          0

AAAAAAAAB6       56.92      10.25      0          0          0

AAAAAAAAAAAAAC2  53.37      13.8       0          0          0

AAAAAAAAAAAA6    58.31      8.86       0          0          0
AAAAAAAAAAAAAC3  146.02     19.15      0          0          0

AAAAAAAAAAAAA_   89.37      76.2       0          0          0

AAAAAAAAAA8      147.17     18.5       0          0          0

AAAAAAAAAAAAAAA2 146.5      19.17      0          0          0

AAAAAAAAAAAAAAA3 144.51     21.16      0          0          0

AAAAAAAAAAAAB0   148.07     17.6       0          0          0

AAAAAAAAAAAAB1   148.35     15.82      0          0          0

AAAAAAAAAA9      146.52     18.65      0          0          0

AAAAAAAAAAAAB2   148.02     17.15      0          0          0

AAAAAAAAB7       101.84     12.33      0          0          0
AAAAAAAAAAAAB3   101.17     13         0          0          0

AAAAAAAAB8       -2.71      20.71      0          0          0
AAAAAAAAAAAAAC4  -4.04      13.71      0          0          0

AAAAAAAAAAAA7    -1.05      19.05      0          0          0

AAAAAAAAAAAAAC5  18.2       10.56      0          0          0

AAAAAAAAAAAAAC6  18.2       14.8       0          0          0

AAAAAAAAAAAAAC7  16.83      16.17      0          0          0

AAAAAAAAAAAAAC8  14.55      21.45      0          0          0

AAAAAAAAAAAAB4   19.03      9.73       0          0          0

AAAAAAAAAAAAB5   15.64      10.7       0          0          0

AAAAAAAAAAAAAC9  31.94      16.19      0          0          0
AAAAAAAAAAAAAC-  31.36      21.64      0          0          0
AAAAAAAAAAAAAC_  30.29      20.71      0          0          0

AAAAAAAAAAAA8    32.01      19.8       0          0          0

AAAAAAAAAAAAB6   26         12.21      0          0          0

AAAAAAAAAAAAB7   27.39      10.82      0          0          0
AAAAAAAAAAAAB8   27.13      15.57      0          0          0

AAAAAAAAAA-      75.07      16.21      0          0          0

AAAAAAAAAAAAAAA4 74.07      17.65      0          0          0

AAAAAAAAAAAAAAA5 73.99      17.05      0          0          0

AAAAAAAAAAAAB9   77.73      13         0          0          0

AAAAAAAAAAAAAAA6 64.5       11.5       0          0          0

AAAAAAAAAAAAB-   119.38     10.37      0          0          0
AAAAAAAAAAAA9    118.23     12.77      0          0          0

AAAAAAAAB9       173.53     10.5       0          0          0

AAAAAAAAB-       26.14      13.86      0          0          0
AAAAAAAAAA_      64.17      9.42       0          0          0

AAAAAAAAAB0      32.28      9          0          0          0
AAAAAAAAAAAAAD0  32.28      9          0          0          0
AAAAAAAAAAAAAD1  30.71      11         0          0          0
AAAAAAAAAAAAAD2  13.57      10.95      0          0          0
AAAAAAAAAAAAAD3  12.85      12.82      0          0          0
AAAAAAAAAAAAAD4  11.35      15.12      0          0          0

AAAAAAAAAAAAAD5  8.34       18.81      0          0          0
AAAAAAAAAAAA-    13.08      10.85      0          0          0

AAAAAAAAAAA1     20.42      10.75      0          18.83      0

AAAAAAAAB_       24.48      12.63      0          0          0

AAAAAAAAAAAAB_   22.67      11         0          0          0
AAAAAAAAAAAAC0   11.4       22.27      0          0          0

AAAAAAAAAAAAC1   6.7        30         0          13.3       0

AAAAAAAAC0       38.67      11         0          0          0

AAAAAAAAAAAAAD6  31.17      18.5       0          0          0

AAAAAAAAAAAAAD7  13.13      12.87      0          24         0

AAAAAAAAAAAAC2   38.67      11         0          0          0
AAAAAAAAAAAAC3   31.17      18.5       0          0          0

AAAAAAAAAAAAC4   19         22.17      0          8.83       0

AAAAAAAAAAAAC5   63.84      20.58      0          0          0

AAAAAAAAAAAAC6   58.87      25.55      0          0          0

AAAAAAAAAAAAC7   58.67      25.75      0          0          0

AAAAAAAAC1       41.17      20         0          0          0

AAAAAAAAAAAAC8   43.03      27         0          0          0
AAAAAAAAAAAAC9   37.67      23.5       0          0          0
AAAAAAAAAAAAC-   37.92      23.25      0          0          0
AAAAAAAAAAAAC_   45.67      15.5       0          0          0

AAAAAAAAAAAAD0   50.77      10.4       0          0          0
AAAAAAAAAAAAD1   49.24      11.93      0          0          0

AAAAAAAAAAAAD2   49.15      7.19       0          0          0

AAAAAAAAC2       55.23      6.94       0          0          0

AAAAAAAAAAAAAD8  55.23      6.94       0          0          0

AAAAAAAAAAAAD3   44.9       17.27      0          0          0

AAAAAAAAC3       58.12      9.05       0          0          0

AAAAAAAAAAAAAD9  58.12      9.55       0          0          0

AAAAAAAAAAAAD4   47.7       19.47      0          0          0
AAAAAAAAAAAAD5   59.27      7.9        0          0          0

AAAAAAAAC4       59.55      7.62       0          0          0

AAAAAAAAAAAAD6   59.55      7.62       0          0          0

AAAAAAAAAAAAD7   51.67      15.5       0          0          0
AAAAAAAAAAAAD8   59.4       7.77       0          0          0
AAAAAAAAAAAAD9   59         25.42      0          0          0
AAAAAAAAAAAA_    66         17.17      0          0          0

AAAAAAAAC5       81.17      26.5       0          0          0
AAAAAAAAAAAAAD-  81.17      26.5       0          0          0

AAAAAAAAAAAAAD_  70.17      37         0          0          0
AAAAAAAAAAAAD-   89.67      18         0          0          0
AAAAAAAAAAAAAAA7 13.03      100.14     0          0          0
AAAAAAAAAAAAAE0  5.145      9.4        0          0          0
AAAAAAAAAB1      29.83      15.34      0          4.83       0
AAAAAAAAAB2      17.57      13.6       0          18.83      0
AAAAAAAAAB3      7.02       20.15      0          22.83      0
AAAAAAAAAB4      -1.85      24         0          0          0
AAAAAAAAAB5      -3.58      28.75      0          0          0
AAAAAAAAAB6      -3.58      28.75      0          0          0
AAAAAAAAAB7      -3.58      28.75      0          0          0
AAAAAAAAAB8      -3.58      28.75      0          0          0
AAAAAAAAAB9      -3.58      28.75      0          0          0
AAAAAAAAAB-      -3.58      28.75      0          0          0
AAAAAAAAAB_      -3.58      28.75      0          0          0
AAAAAAAAAC0      -3.58      28.75      0          0          0

AAAAAAAAAAA2     138.57     21.98      0          0          0

AAAAAAAAAC1      -10.22     26         0          0          0
AAAAAAAAAC2      18.67      11.3       0          0          0
AAAAAAAAAC3      11.82      9.7        0          0          0
AAAAAAAAAC4      59.31      11         0          0          0
AAAAAAAAAC5      55.46      11.2       0          0          0
AAAAAAAAAC6      50.57      11.4       0          0          0
AAAAAAAAAC7      41.45      12         0          0          0
AAAAAAAAAC8      32.97      12.9       0          0          0

AAAAAAAAAC9      27.64      12.36      0          0          0
AAAAAAAAAC-      1.92       20.33      0          0          0
AAAAAAAAAC_      2.34       17.83      0          0          0
AAAAAAAAAD0      2.52       17.13      0          0          0

AAAAAAAAAD1      8.57       21.2       0          20.23      0

AAAAAAAAAD2      7.49       18.85      0          23.66      0
AAAAAAAAAD3      0.93       24.8       0          0          0
AAAAAAAAAD4      1.9        17.4       0          0          0

AAAAAAAAAD5      -9.28      30         0          0          0

AAAAAAAAAD6      25.52      9.51       0          0          0

AAAAAAAAAD7      0.56       17.01      0          0          0
AAAAAAAAAD8      3.07       16.9       0          0          0
AAAAAAAAAD9      17.79      12.67      0          0          0
AAAAAAAAAD-      3.2        17.3       0          0          0
AAAAAAAAAD_      1.98       17.46      0          0          0
AAAAAAAAAE0      2.17       17.3       0          0          0
AAAAAAAAAE1      -1.33      20.83      0          30.5       0

AAAAAAAAAE2      149.24     13.62      0          0          0
AAAAAAAAAE3      175.97     8          0          0          0

AAAAAAAAAE4      157.57     8.43       0          0          0
AAAAAAAAAE5      173.7      12.49      0          0          0
AAAAAAAAAE6      170.2      9.6        0          0          0
AAAAAAAAAE7      171.65     9.8        0          0          0

AAAAAAAAAE8      160.2      19.6       0          0          0
AAAAAAAAAE9      141.73     27.77      0          0          0
AAAAAAAAAE-      142.12     25.72      0          0          0
AAAAAAAAAE_      142.45     25.07      0          0          0
AAAAAAAAAF0      142.94     23.63      0          0          0
AAAAAAAAAF1      143.35     22.12      0          0          0
AAAAAAAAAF2      143.73     20.27      0          0          0
AAAAAAAAAF3      144.12     22.05      0          0          0

AAAAAAAAAF4      144.42     21.45      0          0          0

AAAAAAAAAF5      145.49     15.68      0          0          0
AAAAAAAAAF6      145.75     12.25      0          0          0
AAAAAAAAAF7      162.27     6.6        0          0          0
AAAAAAAAAF8      173.17     7.9        0          0          0
AAAAAAAAAF9      174.61     8.96       0          0          0
AAAAAAAAAF-      172.64     20         0          0          0
AAAAAAAAAF_      169.8      16.6       0          0          0

AAAAAAAAAG0      123.07     59         0          0          0
AAAAAAAAAG1      149.47     15.78      0          0          0
AAAAAAAAAAA3     150.01     15.66      0          0          0
AAAAAAAAAAA4     152.06     12.18      0          0          0
AAAAAAAAAAA5     152.71     11.79      0          0          0
AAAAAAAAAAA6     154.52     15.35      0          0          0
AAAAAAAAAAA7     157.27     10.55      0          0          0
AAAAAAAAAG2      150.77     9.4        0          0          0
AAAAAAAAAG3      174.29     10.8       0          0          0
AAAAAAAAAG4      177.03     6.24       0          0          0
AAAAAAAAAG5      140.55     31.45      0          0          0
AAAAAAAAAG6      121.52     22.34      0          0          0

AAAAAAAAAG7      109.47     14.53      0          0          0
AAAAAAAAAG8      117.56     8.3        0          0          0
AAAAAAAAAG9      135.6      34.14      0          0          0

AAAAAAAAAAA8     137.19     30.78      0          0          0
AAAAAAAAAG-      124.57     40.3       0          0          0
AAAAAAAAAG_      109.18     32.79      0          0          0
AAAAAAAAAH0      108.61     21.84      0          0          0

AAAAAAAAAH1      133.76     38.18      0          0          0
AAAAAAAAAH2      138.24     34.33      0          0          0
AAAAAAAAAH3      139.31     31.66      0          0          0
AAAAAAAAAH4      140        30         0          0          0
AAAAAAAAAH5      140.25     24.52      0          0          0
AAAAAAAAAH6      140.94     30.45      0          0          0
AAAAAAAAAH7      146.37     22.29      0          0          0
AAAAAAAAAH8      151.7      13.8       0          0          0
AAAAAAAAAH9      159.56     11.85      0          0          0
AAAAAAAAAH-      141.35     28.19      0          0          0
AAAAAAAAAH_      84.13      11.05      0          0          0
AAAAAAAAAI0      105.47     13.3       0          0          0

AAAAAAAAAI1      75.93      18.07      0          0          0

AAAAAAAAAI2      71.17      32.24      0          0          0
AAAAAAAAAI3      73         8.55       0          0          0
AAAAAAAAAI4      77.19      8.15       0          0          0
AAAAAAAAAI5      85.98      7.75       0          0          0
AAAAAAAAAI6      81.54      7.32       0          0          0
AAAAAAAAAI7      173.71     19.73      0          0          0

AAAAAAAAAI8      161.17     10.3       0          0          0
AAAAAAAAAI9      172.07     14         0          0          0
AAAAAAAAAI-      171.87     14.77      0          0          0
AAAAAAAAAI_      116.28     15.26      0          0          0

AAAAAAAAAJ0      127.4      20.6       0          0          0
AAAAAAAAAJ1      129.29     13.08      0          0          0
AAAAAAAAAJ2      124.07     19.93      0          0          0
AAAAAAAAAAAB0    121        19         0          0          0

AAAAAAAAAJ3      129.87     21.96      0          0          0
AAAAAAAAAJ4      129.29     13.08      0          0          0

AAAAAAAAAJ5      141.61     15.93      0          0          0
AAAAAAAAAJ6      139.07     18.28      0          0          0

AAAAAAAAAJ7      144.36     21.38      0          0          0

AAAAAAAAAJ8      146.73     17.18      0          0          0

AAAAAAAAAJ9      150.5      15         0          0          0
AAAAAAAAAJ-      147.94     14.06      0          0          0
AAAAAAAAAJ_      116.01     11.9       0          0          0
AAAAAAAAAK0      54.58      15.01      0          0          0
AAAAAAAAAK1      57.12      15.11      0          0          0
AAAAAAAAAAA9     56.65      15.1       0          0          0
AAAAAAAAAK2      59.33      14.96      0          0          0
AAAAAAAAAK3      61.36      15.06      0          0          0

AAAAAAAAAK4      61.96      20.04      0          0          0
AAAAAAAAAK5      63.56      15.26      0          0          0
AAAAAAAAAK6      65.3       15.16      0          0          0
AAAAAAAAAK7      66.74      15.16      0          0          0

AAAAAAAAAK8      69.1       18.9       0          0          0
AAAAAAAAAK9      71.89      15.11      0          0          0
AAAAAAAAAK-      74.09      14.86      0          0          0
AAAAAAAAAK_      75.48      14.66      0          0          0

AAAAAAAAAL0      79.64      29.7       0          0          0
AAAAAAAAAL1      76.83      14.61      0          0          0
AAAAAAAAAL2      120.91     9.1        0          0          0

AAAAAAAAAL3      75.79      17.92      0          0          0
AAAAAAAAAL4      64.82      19.18      0          0          0
AAAAAAAAAL5      86.17      14.5       0          0          0
AAAAAAAAAL6      89.57      14.4       0          0          0
AAAAAAAAAL7      93.11      14.16      0          0          0
AAAAAAAAAL8      113.17     15.26      0          0          0

AAAAAAAAAL9      110.36     23.93      0          0          0
AAAAAAAAAL-      95.88      14.71      0          0          0
AAAAAAAAAL_      98.31      14.96      0          0          0
AAAAAAAAAM0      102.13     15.76      0          0          0
AAAAAAAAAAA-     100.54     21.87      0          0          0

AAAAAAAAAM1      82.43      15.91      0          0          0
AAAAAAAAAM2      107.1      15.26      0          0          0
AAAAAAAAAM3      41.17      15.3       0          0          0

AAAAAAAAAAA_     1.27       20.93      0          27.8       0
AAAAAAAAAM4      2.07       26.22      0          21.71      0
AAAAAAAAAM5      4.49       16.3       0          0          0
AAAAAAAAAM6      51.37      5.9        0          0          0
AAAAAAAAAM7      46.87      14.97      0          0          0
AAAAAAAAAM8      28         12.65      0          0          0

AAAAAAAAAM9      52.64      12.28      0          0          0
AAAAAAAAAM-      87.37      12.6       0          0          0
AAAAAAAAAM_      88.82      14.4       0          0          0

AAAAAAAAAAB0     42.75      20.1       0          0          0
AAAAAAAAAN0      60.17      22.1       0          0          0
AAAAAAAAAN1      79.11      13.52      0          0          0
AAAAAAAAAN2      75.81      15.06      0          0          0
AAAAAAAAAN3      69.19      17.8       0          0          0
AAAAAAAAAN4      70.89      17.7       0          0          0

AAAAAAAAAN5      41.8       13.93      0          0          0
AAAAAAAAAN6      51.99      9.16       0          0          0
AAAAAAAAAN7      75.2       26.97      0          0          0
AAAAAAAAAAB1     74         20         0          0          0
AAAAAAAAAN8      79.952     25.218     0          0          0
AAAAAAAAAN9      83.606     26.564     0          0          0
AAAAAAAAAN-      68.67      17.5       0          0          0

AAAAAAAAAN_      62.92      18.65      0          0          0

AAAAAAAAAO0      82.27      31.7       0          0          0
AAAAAAAAAO1      83.4       29.8       0          0          0
AAAAAAAAAO2      87         39.2       0          0          0
AAAAAAAAAO3      58.51      24.66      0          0          0
AAAAAAAAAO4      69.57      13.72      0          0          0

AAAAAAAAAO5      120.66     11.4       0          0          0
AAAAAAAAAO6      63.47      9.1        0          0          0

AAAAAAAAAO7      68.64      15.83      0          0          0
AAAAAAAAAO8      72.67      11.63      0          0          0
AAAAAAAAAO9      82         6.44       0          0          0
AAAAAAAAAO-      74.19      15.1       0          0          0
AAAAAAAAAO_      69.62      13.3       0          0          0
AAAAAAAAAP0      61.09      23.3       0          0          0
AAAAAAAAAP1      31.37      13.55      0          0          0
AAAAAAAAAP2      31.59      13.9       0          0          0
AAAAAAAAAP3      26.17      17         0          0          0
AAAAAAAAAP4      34.05      16.85      0          0          0
AAAAAAAAAP5      38.17      13.6       0          0          0
AAAAAAAAAP6      40.9       12.05      0          0          0
AAAAAAAAAP7      44.17      11.1       0          0          0
AAAAAAAAAP8      43.67      11.5       0          0          0
AAAAAAAAAP9      45.86      12.25      0          0          0
AAAAAAAAAP-      49.18      13.15      0          0          0
AAAAAAAAAP_      50.73      15.7       0          0          0
AAAAAAAAAQ0      59.22      10.1       0          0          0
AAAAAAAAAQ1      59.02      9.2        0          0          0
AAAAAAAAAQ2      55.17      12.58      0          0          0
AAAAAAAAAQ3      119.27     10.47      0          0          0

AAAAAAAAAQ4      38.98      48.69      0          0          0

AAAAAAAAAQ5      54.35      56.82      0          0          0

AAAAAAAAAQ6      69.17      40         0          0          0

AAAAAAAAAQ7      71.47      38.7       0          0          0

AAAAAAAAAQ8      76.6       34.57      0          0          0
AAAAAAAAAQ9      116.47     11         0          0          0

AAAAAAAAAQ-      126.04     16.13      0          0          0
AAAAAAAAAQ_      128.97     17.8       0          0          0
AAAAAAAAAR0      129.82     18         0          0          0
AAAAAAAAAR1      131.08     15.35      0          0          0
AAAAAAAAAR2      133.52     11.75      0          0          0
AAAAAAAAAR3      134.29     11.05      0          0          0
AAAAAAAAAR4      139.57     15         0          0          0

AAAAAAAAAR5      59.27      14.87      0          0          0

AAAAAAAAAR6      58.62      5.88       0          0          0
AAAAAAAAAR7      57.77      14.4       0          0          0

AAAAAAAAAR8      51.09      13.08      0          0          0

AAAAAAAAAR9      44.97      13.2       0          0          0
AAAAAAAAAR-      56.97      8.16       0          0          0
AAAAAAAAAR_      62.69      11.48      0          0          0
AAAAAAAAAS0      61.79      11.98      0          0          0
AAAAAAAAAS1      61.57      11.2       0          0          0
AAAAAAAAAS2      61.35      10.62      0          0          0
AAAAAAAAAS3      61.21      17.05      0          0          0

AAAAAAAAAS4      60.58      16.79      0          0          0

AAAAAAAAAS5      59.87      15.33      0          0          0
AAAAAAAAAS6      134.53     9.64       0          0          0
AAAAAAAAAS7      133.03     8.04       0          0          0
AAAAAAAAAS8      128.83     13.4       0          0          0
AAAAAAAAAS9      132.37     9.6        0          0          0
AAAAAAAAAS-      123.09     13.5       0          0          0
AAAAAAAAAS_      142.37     13.5       0          0          0
AAAAAAAAAT0      130.87     18.7       0          0          0
AAAAAAAAAT1      134.97     16.6       0          0          0
AAAAAAAAAT2      143.43     14.7       0          0          0
AAAAAAAAAT3      138.54     13.4       0          0          0
AAAAAAAAAT4      140.39     12.4       0          0          0
AAAAAAAAAT5      143.37     11.43      0          0          0
AAAAAAAAAT6      132.37     9.1        0          0          0
AAAAAAAAAT7      126.64     11.8       0          0          0
AAAAAAAAAT8      126.28     13.55      0          0          0
AAAAAAAAAT9      71.52      8.25       0          0          0
AAAAAAAAAT-      76.28      10.28      0          0          0
AAAAAAAAAT_      82.12      8.2        0          0          0
AAAAAAAAAU0      86.31      8.46       0          0          0
AAAAAAAAAU1      88.13      9.1        0          0          0
AAAAAAAAAU2      93.13      7.6        0          0          0
AAAAAAAAAU3      96.35      9.9        0          0          0
AAAAAAAAAU4      102.26     8.25       0          0          0
AAAAAAAAAU5      107.57     8.5        0          0          0
AAAAAAAAAU6      117.73     9.65       0          0          0
AAAAAAAAAU7      117.91     9.9        0          0          0
AAAAAAAAAU8      136.77     15.4       0          0          0
AAAAAAAAAU9      140.22     14.6       0          0          0
AAAAAAAAAU-      140.63     16.3       0          0          0
AAAAAAAAAU_      133.17     13.9       0          0          0

AAAAAAAAAV0      27.58      14.59      0          0          0
AAAAAAAAAV1      21.42      16.75      0          0          0

AAAAAAAAAV2      8.03       13.93      0          0          0

AAAAAAAAAV3      8.17       4          0          50         0

AAAAAAAAAV4      7.09       18.08      0          0          0
AAAAAAAAAV5      4.19       18.98      0          0          0
AAAAAAAAAV6      18.62      19.37      0          0          0
AAAAAAAAAV7      16.23      21.5       0          0          0
AAAAAAAAAV8      15.2       20.8       0          0          0
AAAAAAAAAV9      14.84      23.16      0          0          0

AAAAAAAAAV-      12.55      18.62      0          0          0

AAAAAAAAAV_      11.5       16.67      0          0          0

AAAAAAAAAW0      9.23       15.94      0          0          0

AAAAAAAAAW1      8.31       19.91      0          0          0

AAAAAAAAAW2      6.66       16.51      0          0          0

AAAAAAAAAW3      5.4        21.27      0          0          0

AAAAAAAAAW4      5.8        19.37      0          0          0

AAAAAAAAAW5      6.3        18.87      0          0          0
AAAAAAAAAW6      23.09      13.47      0          0          0
AAAAAAAAAW7      22.8       11.5       0          0          0
AAAAAAAAAW8      13.53      21.34      0          0          0
AAAAAAAAAW9      28.03      10.83      0          0          0
AAAAAAAAAW-      32.33      11.24      0          0          0
AAAAAAAAAW_      18.21      10.7       0          0          0
AAAAAAAAAX0      28.03      10.83      0          0          0
AAAAAAAAAX1      28.66      12.1       0          0          0

AAAAAAAAAX2      26.05      13.03      0          0          0
AAAAAAAAAX3      17.89      13.6       0          0          0
AAAAAAAAAX4      19.52      14.28      0          0          0
AAAAAAAAAX5      23.38      11.72      0          0          0
AAAAAAAAAX6      14.22      16.52      0          0          0
AAAAAAAAAX7      12.16      17.8       0          0          0
AAAAAAAAAX8      3.39       25.23      0          0          0
AAAAAAAAAX9      30.86      12.21      0          0          0
AAAAAAAAAX-      54.2       7.8        0          0          0
AAAAAAAAAX_      58.17      8.17       0          0          0
AAAAAAAAAY0      75.15      9.37       0          0          0
AAAAAAAAAY1      76.91      8.07       0          0          0
AAAAAAAAAY2      112.54     11.17      0          0          0
AAAAAAAAAY3      25.94      13.1       0          0          0

AAAAAAAAAY4      28.11      10.06      0          0          0
AAAAAAAAAY5      28.85      11.31      0          0          0
AAAAAAAAAY6      29.73      12.4       0          0          0
AAAAAAAAAY7      30.32      12.53      0          0          0
AAAAAAAAAY8      30.73      11.6       0          0          0
AAAAAAAAAY9      31.63      14.25      0          0          0
AAAAAAAAAY-      32.34      16.29      0          0          0
AAAAAAAAAY_      32.78      18.3       0          0          0
AAAAAAAAAZ0      33.04      18.58      0          0          0
AAAAAAAAAZ1      33.64      17.66      0          0          0
AAAAAAAAAZ2      34.5       17.95      0          0          0
AAAAAAAAAZ3      35.36      14.59      0          0          0
AAAAAAAAAZ4      37.09      11.74      0          0          0

AAAAAAAAAZ5      89.02      11         0          0          0
AAAAAAAAAZ6      48.02      13.11      0          0          0
AAAAAAAAAZ7      76.49      11.94      0          0          0
AAAAAAAAAZ8      66.47      11.28      0          0          0

AAAAAAAAAZ9      57.78      15.39      0          0          0

AAAAAAAAAZ-      56.6       14.57      0          0          0
AAAAAAAAAZ_      34.76      11.33      0          0          0
AAAAAAAAA0A      34.99      11.65      0          0          0
AAAAAAAAA0B      35.96      10.6       0          0          0

AAAAAAAAA0C      93         6.17       0          0          0

AAAAAAAAA0D      94.18      4.99       0          0          0

AAAAAAAAA0E      107.03     6.14       0          0          0
AAAAAAAAA0F      120.89     10.2       0          0          0
AAAAAAAAA0G      130.56     10.2       0          0          0

AAAAAAAAA0H      13.96      18.89      0          0          0
AAAAAAAAA0I      25.88      13.6       0          0          0

AAAAAAAAA0J      9.17       11.3       0          0          0

AAAAAAAAA0K      9.32       12.05      0          0          0

AAAAAAAAA0L      9.85       29.32      0          0          0

AAAAAAAAA0M      9.37       13.3       0          0          0

AAAAAAAAA0N      13.18      22.49      0          0          0

AAAAAAAAA0O      10.38      21.29      0          0          0

AAAAAAAAA0P      29.89      19.3       0          0          0
AAAAAAAAA0Q      31.83      18         0          0          0
AAAAAAAAA0R      33.08      17.3       0          0          0
AAAAAAAAA0S      36.33      17.8       0          0          0
AAAAAAAAA0T      43.9       7.78       0          0          0
AAAAAAAAA0U      44.35      10         0          0          0
AAAAAAAAA0V      44.78      7.5        0          0          0
AAAAAAAAA0W      45.47      7.3        0          0          0
AAAAAAAAA0X      60.5       24.9       0          0          0
AAAAAAAAA0Y      82.88      20.7       0          0          0
AAAAAAAAA0Z      52.15      18.2       0          0          0
AAAAAAAAA00      43.49      17.5       0          0          0
AAAAAAAAA01      121.29     14.3       0          0          0
AAAAAAAAA02      104.41     16.4       0          0          0
AAAAAAAAA03      111.59     19.08      0          0          0
AAAAAAAAA04      68.17      8          0          0          0
AAAAAAAAA05      49.99      7.6        0          0          0
AAAAAAAAA06      126.41     10.9       0          0          0
AAAAAAAAA07      116.43     10.1       0          0          0
AAAAAAAAA08      83.4       10.41      0          0          0
AAAAAAAAA09      128.62     10.47      0          0          0
AAAAAAAAA0-      127.3      13.1       0          0          0
AAAAAAAAA0_      28.91      13.05      0          0          0
AAAAAAAAA1A      29.09      20.5       0          0          0
AAAAAAAAA1B      29.75      20.2       0          0          0

AAAAAAAAA1C      26.03      20.34      0          0          0

AAAAAAAAA1D      23.01      19.19      0          0          0

AAAAAAAAA1E      19.93      19.53      0          0          0
AAAAAAAAA1F      16.99      19.68      0          0          0
AAAAAAAAA1G      42.18      10.5       0          0          0
AAAAAAAAA1H      -14.46     36.46      0          0          0

AAAAAAAAA1I      -14.99     38.99      0          0          0

AAAAAAAAA1J      0.95       16.91      0          0          0

AAAAAAAAA1K      -1.18      29.41      0          0          0

AAAAAAAAA1L      -1         15.77      0          0          0
AAAAAAAAA1M      0.22       14.95      0          0          0

AAAAAAAAA1N      1.61       28.13      0          0          0
AAAAAAAAA1O      2.09       19.56      0          0          0
AAAAAAAAA1P      13.46      14.65      0          0          0

AAAAAAAAA1Q      2.22       21.33      0          0          0

AAAAAAAAA1R      1.11       21.14      0          0          0

AAAAAAAAA1S      -6.86      15.47      0          0          0
AAAAAAAAA1T      -1.18      15.17      0          0          0

AAAAAAAAA1U      -6.08      18.66      0          0          0
AAAAAAAAA1V      -0.42      11.33      0          0          0

AAAAAAAAA1W      7.76       7.98       0          0          0
AAAAAAAAA1X      -0.09      9.26       0          0          0
AAAAAAAAA1Y      1.75       14.42      0          0          0
AAAAAAAAA1Z      2.47       23.86      0          0          0
AAAAAAAAA10      3.11       11.56      0          0          0
AAAAAAAAA11      1.15       10.01      0          0          0

AAAAAAAAA12      -6.25      24.26      0          0          0
AAAAAAAAA13      -7.98      25.98      0          0          0
AAAAAAAAA14      -11.27     26         0          0          0
AAAAAAAAA15      2.82       13.6       0          0          0
AAAAAAAAA16      34.23      8          0          0          0

AAAAAAAAA17      24.36      18         0          0          0
AAAAAAAAA18      30.67      10.17      0          0          0
AAAAAAAAA19      45.17      11.3       0          0          0
AAAAAAAAA1-      11.02      10.4       0          0          0
AAAAAAAAA1_      8          10.7       0          0          0

AAAAAAAAA2A      16.48      7.52       0          0          0

AAAAAAAAA2B      16.53      7.47       0          0          0
AAAAAAAAA2C      16.87      19.47      0          0          0
AAAAAAAAA2D      17.85      22.79      0          0          0
AAAAAAAAA2E      22.25      18.6       0          0          0
AAAAAAAAA2F      33.42      8          0          0          0
AAAAAAAAA2G      123.24     28.5       0          0          0
AAAAAAAAA2H      18.52      12.65      0          0          0
AAAAAAAAA2I      14.54      16.85      0          0          0

AAAAAAAAA2J      22.81      9.5        0          0          0
AAAAAAAAA2K      47.5       14         0          0          0
AAAAAAAAA2L      49.15      12.12      0          0          0
AAAAAAAAA2M      50.95      12.25      0          0          0
AAAAAAAAA2N      71.35      23.6       0          0          0
AAAAAAAAA2O      124.4      25.4       0          0          0
AAAAAAAAA2P      127.99     16.6       0          0          0
AAAAAAAAA2Q      125.77     22.3       0          0          0
AAAAAAAAA2R      126.47     16.8       0          0          0

AAAAAAAAA2S      126.85     16.12      0          0          0
AAAAAAAAA2T      124.95     22.5       0          0          0
AAAAAAAAA2U      69.87      16.08      0          0          0
AAAAAAAAA2V      60.37      17.63      0          0          0

AAAAAAAAAAB2     49.13      20.87      0          0          0

AAAAAAAAA2W      52.25      17.68      0          0          0

AAAAAAAAA2X      51.36      12.15      0          0          0

AAAAAAAAA2Y      49.5       13.2       0          0          0
AAAAAAAAA2Z      52.31      14.96      0          0          0
AAAAAAAAA20      50.12      18.6       0          0          0
AAAAAAAAA21      47.5       22.74      0          0          0
AAAAAAAAA22      52.01      18.94      0          0          0
AAAAAAAAA23      51.17      19.38      0          0          0
AAAAAAAAA24      51.6       18.62      0          0          0
AAAAAAAAA25      53.97      18         0          0          0
AAAAAAAAA26      56.55      14         0          0          0
AAAAAAAAA27      53.92      31.38      0          0          0
AAAAAAAAA28      52.41      12.7       0          0          0
AAAAAAAAA29      166.43     17.04      0          0          0
AAAAAAAAA2-      164.32     13.95      0          0          0
AAAAAAAAA2_      163.61     16.26      0          0          0
AAAAAAAAA3A      164.73     13.6       0          0          0

AAAAAAAAA3B      168.89     14.77      0          0          0
AAAAAAAAA3C      172.72     9.4        0          0          0
AAAAAAAAA3D      160.85     15.21      0          0          0
AAAAAAAAA3E      160.32     14.95      0          0          0
AAAAAAAAA3F      162.06     13.11      0          0          0
AAAAAAAAA3G      164.42     14.45      0          0          0
AAAAAAAAA3H      154.37     15.59      0          0          0
AAAAAAAAA3I      153.63     17.79      0          0          0
AAAAAAAAA3J      151.97     13.82      0          0          0
AAAAAAAAA3K      166.46     22.2       0          0          0
AAAAAAAAA3L      166.27     21.08      0          0          0

AAAAAAAAA3M      169.14     20.86      0          0          0

AAAAAAAAA3N      11.02      22.85      0          16.13      0
AAAAAAAAA3O      9.22       19.8       0          20.98      0

AAAAAAAAA3P      6.51       20.7       0          22.79      0
AAAAAAAAA3Q      30.8       14.9       0          0          0
AAAAAAAAA3R      31.82      14.7       0          0          0
AAAAAAAAA3S      33.05      15.1       0          0          0
AAAAAAAAA3T      42.15      15.3       0          0          0
AAAAAAAAA3U      14.72      12.9       0          0          0
AAAAAAAAA3V      23.09      15.24      0          0          0
AAAAAAAAA3W      26.47      15.7       0          0          0
AAAAAAAAA3X      3.65       24.06      0          22.29      0
AAAAAAAAA3Y      112.97     10.57      0          0          0

AAAAAAAAA3Z      138.3      7.5        0          0          0
AAAAAAAAA30      138.74     9          0          0          0
AAAAAAAAA31      101.17     13.24      0          0          0
AAAAAAAAA32      100.66     17.11      0          0          0
AAAAAAAAA33      100.15     10.67      0          0          0
AAAAAAAAA34      99.83      10.56      0          0          0
AAAAAAAAA35      99.48      12.28      0          0          0
AAAAAAAAA36      98.65      11.96      0          0          0
AAAAAAAAA37      98.35      11.61      0          0          0
AAAAAAAAA38      97.86      12.12      0          0          0
AAAAAAAAA39      97.44      12.72      0          0          0
AAAAAAAAA3-      97.17      14.15      0          0          0
AAAAAAAAA3_      96.83      15.43      0          0          0
AAAAAAAAA4A      119.62     9.38       0          0          0
AAAAAAAAA4B      142.17     21.83      0          0          0
AAAAAAAAAAB3     145        29         0          0          0
AAAAAAAAA4C      147.64     9.7        0          0          0
AAAAAAAAA4D      152.93     4.3        0          0          0
AAAAAAAAA4E      153.04     10         0          0          0
AAAAAAAAA4F      195.5      11.3       0          0          0
AAAAAAAAA4G      177.83     24.35      0          0          0
AAAAAAAAA4H      186.67     15         0          0          0
AAAAAAAAA4I      195.1      10.07      0          0          0
AAAAAAAAA4J      194.68     14.45      0          0          0
AAAAAAAAA4K      181.57     23.9       0          0          0
AAAAAAAAA4L      185.27     19.9       0          0          0

AAAAAAAAA4M      185.82     20.18      0          0          0
AAAAAAAAA4N      180.77     22.05      0          0          0
AAAAAAAAA4O      184.33     18.84      0          0          0
AAAAAAAAA4P      184.33     20.74      0          0          0
AAAAAAAAA4Q      175.96     18.9       0          0          0
AAAAAAAAA4R      182.14     17.5       0          0          0
AAAAAAAAA4S      171.97     25.01      0          0          0
AAAAAAAAA4T      169.62     27.33      0          0          0
AAAAAAAAA4U      172.97     21.69      0          0          0
AAAAAAAAA4V      171.49     17.65      0          0          0
AAAAAAAAA4W      174.25     14.62      0          0          0
AAAAAAAAA4X      177.57     14.35      0          0          0
AAAAAAAAA4Y      177.66     14.55      0          0          0
AAAAAAAAA4Z      176.16     15.4       0          0          0
AAAAAAAAA40      176.57     15.15      0          0          0
AAAAAAAAA41      175.03     19.84      0          0          0
AAAAAAAAA42      173.83     18.21      0          0          0
AAAAAAAAA43      182.3      23.84      0          0          0
AAAAAAAAA44      180.23     16.2       0          0          0
AAAAAAAAA45      179.5      14         0          0          0
AAAAAAAAA46      179.65     13.75      0          0          0
AAAAAAAAA47      177.85     15         0          0          0
AAAAAAAAA48      176.06     18.54      0          0          0
AAAAAAAAA49      180.11     22.22      0          0          0
AAAAAAAAA4-      183.42     16.75      0          0          0
AAAAAAAAA4_      176.94     19.68      0          0          0
AAAAAAAAA5A      187.32     13.55      0          0          0
AAAAAAAAA5B      186.22     13.28      0          0          0
AAAAAAAAA5C      190.67     16         0          0          0
AAAAAAAAA5D      192.32     14.85      0          0          0
AAAAAAAAA5E      193.07     13.07      0          0          0
AAAAAAAAA5F      193.07     14.1       0          0          0

AAAAAAAAA5G      184.23     20.38      0          0          0
AAAAAAAAA5H      184.67     14.7       0          0          0
AAAAAAAAA5I      193.21     12.96      0          0          0
AAAAAAAAA5J      184.17     23.9       0          0          0
AAAAAAAAA5K      182.32     25.6       0          0          0
AAAAAAAAA5L      193.39     14.7       0          0          0
AAAAAAAAA5M      193.55     14.85      0          0          0
AAAAAAAAA5N      193.7      14.7       0          0          0
AAAAAAAAA5O      186.45     19.72      0          0          0
AAAAAAAAA5P      182.13     24.9       0          0          0
AAAAAAAAA5Q      229.42     9.8        0          50         0
AAAAAAAAA5R      231.15     8          0          50         0
AAAAAAAAA5S      222.15     9          0          50         0
AAAAAAAAA5T      219.77     9          0          50         0
AAAAAAAAA5U      217.65     8.38       0          50         0
AAAAAAAAA5V      216.65     8.52       0          0          0
AAAAAAAAA5W      218.34     8.9        0          50         0
AAAAAAAAA5X      212.13     12.42      0          0          0
AAAAAAAAA5Y      210.62     13.61      0          0          0
AAAAAAAAA5Z      207.08     16.09      0          0          0
AAAAAAAAA50      206.04     15.13      0          0          0

AAAAAAAAA51      204.42     17.58      0          0          0
AAAAAAAAA52      202.79     16.38      0          0          0
AAAAAAAAA53      201.55     17.62      0          0          0
AAAAAAAAA54      200.3      17.87      0          0          0
AAAAAAAAA55      199.04     14.13      0          0          0
AAAAAAAAA56      197.94     13.23      0          0          0
AAAAAAAAA57      196.52     10.65      0          0          0

AAAAAAAAA58      32.61      19.86      0          0          0
AAAAAAAAA59      39.57      14.86      0          0          0
AAAAAAAAA5-      40.13      22.16      0          0          0
AAAAAAAAA5_      44.87      22.46      0          0          0

AAAAAAAAAAB4     47.98      21.67      0          0          0

AAAAAAAAA6A      29.4       21.43      0          0          0
AAAAAAAAA6B      36.27      12.32      0          0          0

AAAAAAAAA6C      61.16      17.13      0          0          0

AAAAAAAAA6D      58.45      18.28      0          0          0

AAAAAAAAA6E      9.31       18.68      0          0          0

AAAAAAAAA6F      7.66       8.84       0          0          0

AAAAAAAAA6G      6.11       15.78      0          0          0

AAAAAAAAA6H      4.56       13.5       0          0          0

AAAAAAAAA6I      2.89       29.22      0          0          0

AAAAAAAAA6J      10.42      16.3       0          0          0

AAAAAAAAA6K      43.51      23         0          0          0

AAAAAAAAA6L      40.96      13         0          0          0

AAAAAAAAA6M      38.31      12.2       0          0          0

AAAAAAAAA6N      35.52      11.39      0          0          0

AAAAAAAAA6O      33.36      11.02      0          0          0

AAAAAAAAA6P      30.96      18.43      0          0          0

AAAAAAAAA6Q      12.27      9.4        0          0          0

AAAAAAAAA6R      14.04      10.67      0          0          0

AAAAAAAAA6S      17.43      12.92      0          0          0

AAAAAAAAA6T      20.44      16.19      0          0          0

AAAAAAAAA6U      23.4       12.29      0          0          0

AAAAAAAAA6V      26.01      11.46      0          0          0

AAAAAAAAA6W      28.2       18.44      0          0          0

AAAAAAAAA6X      23.95      19.82      0          6.23       0

AAAAAAAAA6Y      23.98      16.4       0          9.62       0
AAAAAAAAAAAB1    23.98      16.4       0          0          0
AAAAAAAAAAAB2    31.74      8.7        0          0          0
AAAAAAAAAAAB3    31.74      8.7        0          0          0

AAAAAAAAA6Z      18.28      24.07      0          7.65       0
AAAAAAAAA60      29.04      13         0          7.96       0
AAAAAAAAA61      22.18      20         0          0          0
AAAAAAAAAAAB4    22.18      20         0          7.82       0
AAAAAAAAAAB5     56.72      12.45      0          0          0
AAAAAAAAA62      53.65      19.52      0          0          0

AAAAAAAAA63      6.24       21.6       0          22.16      0
AAAAAAAAA64      -11.29     22.29      0          0          0
AAAAAAAAA65      -10.48     21.48      0          0          0
AAAAAAAAA66      -13.65     23.65      0          0          0
AAAAAAAAA67      -12.88     22.88      0          0          0
AAAAAAAAA68      -12.15     24.15      0          0          0
AAAAAAAAA69      -8.54      19.54      0          0          0
AAAAAAAAA6-      -7.55      25.55      0          0          0
AAAAAAAAA6_      -7.15      31.15      0          0          0
AAAAAAAAA7A      -9.12      20.12      0          0          0
AAAAAAAAA7B      -9.85      20.85      0          0          0
AAAAAAAAA7C      -8.16      16.16      0          0          0

AAAAAAAAA7D      90.48      12.09      0          0          0

AAAAAAAAA7E      90.1       12.77      0          0          0
AAAAAAAAA7F      -6.55      34.47      0          0          0
AAAAAAAAA7G      -5.94      29.94      0          0          0
AAAAAAAAA7H      -5.42      37.42      0          0          0
AAAAAAAAA7I      41.91      12.95      0          0          0
AAAAAAAAA7J      53.48      13.4       0          0          0
AAAAAAAAA7K      49.49      18         0          0          0
AAAAAAAAA7L      53.82      15.76      0          0          0
AAAAAAAAA7M      55.74      8.84       0          0          0
AAAAAAAAA7N      51.94      8.8        0          0          0
AAAAAAAAA7O      49.12      8.7        0          0          0
AAAAAAAAA7P      46.61      7.03       0          0          0
AAAAAAAAA7Q      57.05      15         0          0          0

AAAAAAAAA7R      70.06      8.63       0          0          0

AAAAAAAAA7S      86.41      18.24      0          0          0
AAAAAAAAA7T      45.59      6.26       0          0          0
AAAAAAAAA7U      44.55      8          0          0          0
AAAAAAAAA7V      43.43      10.5       0          0          0
AAAAAAAAA7W      55.24      14.7       0          0          0
AAAAAAAAA7X      56.17      15.5       0          0          0

AAAAAAAAA7Y      58.03      9.14       0          0          0
AAAAAAAAA7Z      69.12      10.5       0          0          0

AAAAAAAAA70      69.21      10.06      0          0          0
AAAAAAAAA71      61.93      14.2       0          0          0

AAAAAAAAA72      76.43      11.84      0          0          0

AAAAAAAAA73      78         11.47      0          0          0

AAAAAAAAA74      81.75      14.12      0          0          0

AAAAAAAAA75      82.24      14.03      0          0          0

AAAAAAAAA76      84.93      15.24      0          0          0
AAAAAAAAA77      37.42      21.2       0          0          0
AAAAAAAAA78      40.37      15.35      0          0          0
AAAAAAAAA79      5.35       17.1       0          0          0
AAAAAAAAA7-      4.05       18.31      0          0          0
AAAAAAAAA7_      2.44       14.96      0          0          0
AAAAAAAAA8A      4.66       19.34      0          0          0
AAAAAAAAA8B      5.42       20.58      0          0          0
AAAAAAAAA8C      12.17      12.7       0          0          0
AAAAAAAAA8D      26.76      15.99      0          0          0
AAAAAAAAA8E      31.46      16.45      0          0          0
AAAAAAAAA8F      34.69      26.9       0          0          0
AAAAAAAAA8G      28         15.58      0          0          0
AAAAAAAAA8H      7.46       12.54      0          0          0

AAAAAAAAA8I      59.93      8.74       0          0          0
AAAAAAAAA8J      60.15      8.02       0          10         0

AAAAAAAAA8K      58.87      7.13       0          0          0
AAAAAAAAA8L      60.29      9.71       0          0          0
AAAAAAAAA8M      61.16      12.84      0          0          0
AAAAAAAAA8N      72.31      7.69       0          0          0
AAAAAAAAA8O      77.97      9          0          0          0
AAAAAAAAA8P      90.17      6.1        0          0          0
AAAAAAAAA8Q      131        16.24      0          0          0

AAAAAAAAA8R      52.49      11.51      0          0          0

AAAAAAAAA8S      52.94      11.06      0          0          0

AAAAAAAAA8T      51.03      12.97      0          0          0
AAAAAAAAA8U      49.99      10.01      0          0          0

AAAAAAAAA8V      65.17      16.09      0          0          0
AAAAAAAAA8W      83.17      7.19       0          0          0
AAAAAAAAA8X      103.38     7.92       0          0          0
AAAAAAAAA8Y      112.49     8.23       0          0          0
AAAAAAAAA8Z      126        18.82      0          0          0
AAAAAAAAA80      70.83      13.5       0          0          0

AAAAAAAAA81      73.15      12.85      0          0          0
AAAAAAAAA82      95.47      25.53      0          0          0

AAAAAAAAA83      56.42      8.75       0          0          0

AAAAAAAAA84      45.83      16.17      0          0          0

AAAAAAAAA85      47.57      10.43      0          0          0
AAAAAAAAA86      48.61      11.39      0          0          0
AAAAAAAAA87      38.84      14         0          0          0
AAAAAAAAA88      21.5       12.5       0          0          0
AAAAAAAAA89      24         6          0          0          0
AAAAAAAAA8-      26.31      5.69       0          0          0
AAAAAAAAA8_      46.92      15.9       0          0          0
AAAAAAAAA9A      39.28      16.53      0          0          0
AAAAAAAAA9B      33.84      13.57      0          0          0
AAAAAAAAA9C      7.95       10.15      0          0          0
AAAAAAAAA9D      7.5        10.85      0          0          0
AAAAAAAAA9E      10.16      11.5       0          0          0
AAAAAAAAAAB6     12.28      7.35       0          0          0
AAAAAAAAA9F      6.43       13.62      0          0          0
AAAAAAAAA9G      10.82      7.18       0          0          0
AAAAAAAAA9H      25.15      11.47      0          0          0
AAAAAAAAA9I      17.46      16.56      0          0          0
AAAAAAAAA9J      12.5       11.2       0          0          0
AAAAAAAAA9K      15.18      11.3       0          0          0

AAAAAAAAA9L      9.4        12.6       0          0          0

AAAAAAAAA9M      11.52      20.48      0          0          0

AAAAAAAAA9N      13.69      16.81      0          0          0
AAAAAAAAA9O      16.53      14.47      0          0          0
AAAAAAAAA9P      17.59      14.74      0          0          0
AAAAAAAAA9Q      20.69      11.8       0          0          0
AAAAAAAAA9R      28.77      14         0          0          0
AAAAAAAAA9S      31.53      13.8       0          0          0
AAAAAAAAA9T      31.9       13.45      0          0          0
AAAAAAAAA9U      19         15.1       0          0          0
AAAAAAAAA9V      23.24      14.99      0          0          0
AAAAAAAAA9W      52.17      8.01       0          0          0
AAAAAAAAA9X      32.21      11.86      0          0          0
AAAAAAAAA9Y      34.19      8.15       0          0          0
AAAAAAAAA9Z      35.77      6.93       0          0          0
AAAAAAAAA90      6.24       13.32      0          0          0
AAAAAAAAA91      8.02       9.65       0          0          0

AAAAAAAAA92      1.42       17.58      0          0          0
AAAAAAAAA93      -2.91      26.91      0          0          0

AAAAAAAAA94      4.03       17.97      0          0          0

AAAAAAAAA95      4.62       17.38      0          0          0

AAAAAAAAA96      7.41       14.58      0          0          0

AAAAAAAAA97      -0.18      23.18      0          0          0
AAAAAAAAA98      -1.03      5.03       0          20         0
AAAAAAAAA99      -2.33      16.33      0          0          0
AAAAAAAAA9-      12.6       11.45      0          0          0

AAAAAAAAA9_      5.5        15.67      0          0          0
AAAAAAAAA-A      4.92       16.38      0          0          0
AAAAAAAAA-B      4.39       15         0          0          0
AAAAAAAAA-C      10.55      12.25      0          0          0
AAAAAAAAA-D      8.85       14.6       0          0          0
AAAAAAAAA-E      11.53      11.45      0          0          0
AAAAAAAAA-F      6.61       12.34      0          0          0
AAAAAAAAA-G      8.55       15.1       0          0          0
AAAAAAAAA-H      14.3       12.7       0          0          0
AAAAAAAAA-I      63.51      8.86       0          0          0
AAAAAAAAA-J      66.17      5.83       0          0          0
AAAAAAAAA-K      69.95      6.05       0          0          0
AAAAAAAAA-L      68.17      5.83       0          0          0
AAAAAAAAA-M      71.43      2.57       0          0          0
AAAAAAAAA-N      75.08      4.92       0          0          0
AAAAAAAAA-O      72.19      5.81       0          0          0
AAAAAAAAA-P      62.37      13.63      0          0          0
AAAAAAAAA-Q      88.61      15.6       0          0          0

AAAAAAAAA-R      79.21      28.07      0          0          0
AAAAAAAAA-S      75.59      9.39       0          0          0
AAAAAAAAA-T      74.29      15.16      0          0          0
AAAAAAAAA-U      76.81      12.75      0          0          0

AAAAAAAAA-V      76.99      11.42      0          0          0
AAAAAAAAA-W      77.47      10.09      0          0          0

AAAAAAAAA-X      78.45      5.57       0          0          0
AAAAAAAAA-Y      15.1       15.97      0          0          0
AAAAAAAAA-Z      16.65      19.91      0          0          0
AAAAAAAAA-0      18.49      12.06      0          0          0
AAAAAAAAA-1      120.7      10.13      0          0          0
AAAAAAAAA-2      123.96     7.59       0          0          0
AAAAAAAAA-3      118.59     8.8        0          0          0
AAAAAAAAA-4      182.5      28.85      0          0          0
AAAAAAAAA-5      188.07     25.38      0          0          0

AAAAAAAAA-6      96.52      18.65      0          0          0
AAAAAAAAA-7      98.1       13.56      0          0          0

AAAAAAAAA-8      33.4       48.6       0          0          0

AAAAAAAAA-9      20.32      22.76      0          6.92       0

AAAAAAAAA--      24.17      58.33      0          0          0

AAAAAAAAA-_      19.57      25.6       0          4.83       0
AAAAAAAAA_A      19.48      14.45      0          16.07      0
AAAAAAAAAAB7     32.64      10.4       0          0          0
AAAAAAAAAAB8     35.24      12.4       0          0          0
AAAAAAAAA_B      14         14         0          22         0
AAAAAAAAAAAB5    14         14         0          0          0
AAAAAAAAAAAB6    16.72      11.28      0          0          0
AAAAAAAAAAAB7    17.32      10.68      0          0          0
AAAAAAAAA_C      14.2       20.3       0          15.5       0
AAAAAAAAA_D      22.39      15.42      0          12.19      0
AAAAAAAAA_E      25.75      13         0          11.25      0

AAAAAAAAA_F      14.91      21.09      0          14         0

AAAAAAAAA_G      50.24      13.76      0          0          0

AAAAAAAAA_H      46.29      19.71      0          0          0

AAAAAAAAA_I      43.42      16         0          0          0

AAAAAAAAA_J      43.52      16         0          0          0

AAAAAAAAA_K      44.81      16         0          0          0

AAAAAAAAA_L      44.9       16         0          0          0

AAAAAAAAA_M      45.01      16         0          0          0

AAAAAAAAA_N      83.26      55.91      0          0          0

AAAAAAAAA_O      43.94      18.06      0          0          0
AAAAAAAAA_P      -4.62      26.85      0          0          0
AAAAAAAAA_Q      -5.05      25.05      0          0          0
AAAAAAAAA_R      -5.44      27.44      0          0          0
AAAAAAAAA_S      -0.66      22.66      0          0          0
AAAAAAAAA_T      -1.98      21.98      0          0          0
AAAAAAAAA_U      -3.81      23.81      0          0          0

AAAAAAAAA_V      30.28      27.72      0          0          0

AAAAAAAAA_W      0.82       23.5       0          25.68      0
AAAAAAAAA_X      1.42       21.6       0          0          0
AAAAAAAAA_Y      1.4        21.6       0          0          0

AAAAAAAAA_Z      3.61       31.56      0          0          0
AAAAAAAAA_0      12.27      16.35      0          0          0
AAAAAAAAA_1      13.15      17.2       0          0          0
AAAAAAAAA_2      13.2       16.93      0          0          0
AAAAAAAAA_3      10.87      17.13      0          22         0

AAAAAAAAA_4      1.46       33.71      0          0          0
AAAAAAAAA_5      34.38      11.35      0          0          0

AAAAAAAAA_6      34.87      8.94       0          0          0
AAAAAAAAA_7      33.92      7.57       0          0          0

AAAAAAAAA_8      33.48      6.16       0          0          0

AAAAAAAAA_9      32.45      8.2        0          0          0

AAAAAAAAA_-      32         8.01       0          0          0

AAAAAAAAA__      65.28      27         0          0          0

AAAAAAAABA0      32.94      7.77       0          0          0

AAAAAAAABA1      32.36      6.89       0          0          0

AAAAAAAABA2      44.67      9.15       0          0          0

AAAAAAAABA3      47.96      9.38       0          0          0

AAAAAAAABA4      58.74      8.95       0          0          0

AAAAAAAABA5      62.65      7.7        0          0          0

AAAAAAAABA6      64.17      25.36      0          0          0

AAAAAAAABA7      60.87      10.22      0          0          0
AAAAAAAABA8      1.65       21         0          0          0
AAAAAAAABA9      1.64       21         0          0          0
AAAAAAAAAAAAAAAA1 -2.02     25         0          0          0
AAAAAAAAAAAAAAA8 -2.02      25         0          0          0
AAAAAAAAAAAAAAA9 -2.02      25         0          0          0
AAAAAAAAAAAAAAAA2 -2.02     25         0          0          0
AAAAAAAAAAAAAAA- -2.02      25         0          0          0
AAAAAAAAAAAAAAA_ -2.02      25         0          0          0

AAAAAAAABA-      19.16      5.75       0          25.09      0

AAAAAAAABA_      17.03      5.6        0          27.37      0

AAAAAAAABB0      41.12      7.08       0          0          0

AAAAAAAABB1      56.64      37.37      0          0          0
AAAAAAAABB2      27.44      14.53      0          8.03       0

AAAAAAAABB3      54.37      37.5       0          0          0
AAAAAAAABB4      34.17      27.94      0          0          0

AAAAAAAABB5      57.13      8.87       0          0          0

AAAAAAAABB6      57.84      22.16      0          0          0
AAAAAAAABB7      163.48     12.79      0          0          0

AAAAAAAABB8      8          20.17      0          21.83      0

AAAAAAAABB9      7.02       19.32      0          23.66      0

AAAAAAAABB-      6.5        19.83      0          23.67      0

AAAAAAAABB_      27         18.16      0          0          0
AAAAAAAABC0      80.77      13.28      0          0          0
AAAAAAAAAAAB8    71.21      12.79      0          0          0
AAAAAAAABC1      85.07      4.57       0          0          0

AAAAAAAABC2      34.21      6.96       0          0          0
AAAAAAAABC3      32.64      13.36      0          0          0
AAAAAAAABC4      31.18      14.82      0          0          0

AAAAAAAABC5      5.98       20         0          24.02      0
AAAAAAAABC6      26.03      10.73      0          0          0

AAAAAAAABC7      15.63      13.29      0          21.08      0

AAAAAAAABC8      15.54      14.16      0          20.3       0

AAAAAAAABC9      15.62      14.65      0          19.73      0

AAAAAAAABC-      15.4       14.29      0          20.31      0

AAAAAAAABC_      15.49      12.51      0          22         0

AAAAAAAABD0      11.84      3.46       0          34.7       0

AAAAAAAABD1      15.16      11.61      0          23.23      0
AAAAAAAABD2      12.18      4.36       0          33.46      0
AAAAAAAABD3      1.98       24         0          24.02      0
AAAAAAAABD4      1          25         0          24         0
AAAAAAAABD5      52.34      9.66       0          0          0
AAAAAAAABD6      68.24      9.47       0          0          0
AAAAAAAABD7      4.88       9.55       0          0          0
AAAAAAAABD8      57.99      32.15      0          0          0
AAAAAAAABD9      60.72      17.01      0          0          0
AAAAAAAABD-      58.29      15.8       0          0          0
AAAAAAAABD_      87.78      10.59      0          0          0
AAAAAAA-         -12.26     24.13      0          50         0
AAAAAAAAC6       -29.01     29.01      0          50         0
AAAAAAAAC7       -29.01     29.01      0          50         0
AAAAAAAAC8       -26.45     26.45      0          50         0
AAAAAAAAC9       -26.45     26.45      0          50         0
AAAAAAAAC-       -22.45     22.45      0          50         0
AAAAAAAAC_       -22.45     22.45      0          50         0

AAAAAAAABE0      -18.08     33.25      0          0          0
AAAAAAAABE1      -18.29     33.25      0          200        0

AAAAAAAAAAAAAAAAA2 37.17    24         0          0          0

AAAAAAAAAAAAAAAAA3 8.06     27.11      0          0          0

AAAAAAAAAAAAAAAAA4 5.64     29.53      0          0          0

[OUTFALLS]



AAAAAAAAAAAB9    4.05       TIMESERIES AAAAAAAAAAF4     NO

AAAAAAAAAAAB-    -2.02      TIMESERIES AAAAAAAAAAF5     NO

AAAAAAAAAAAB_    -2         TIMESERIES AAAAAAAAAAF6     YES

AAAAAAAAAAAC0    15.17      FREE                        NO

AAAAAAAAAAAC1    26.17      FREE                        NO

AAAAAAAAAAAC2    26.17      FREE                        NO

AAAAAAAAAAAAD_   26.170000  FREE                        NO

AAAAAAAAAAAC3    34         FREE                        NO

AAAAAAAAAAAC4    60.19      FREE                        NO

AAAAAAAAAAAC5    3.5        FREE                        YES

AAAAAAAAAAAC6    34.186     FREE                        YES

AAAAAAAAAAAC7    54.77      FREE                        YES

AAAAAAAAAAAC8    56.18      FREE                        YES

AAAAAAAAAAAC9    58.07      FREE                        YES

AAAAAAAAAAAC-    64         FREE                        NO

AAAAAAAAAAAC_    89         FREE                        YES
AAAAAAAAAAAAE0   89.000000  FREE                        NO


AAAAAAAAAAAD0    -1.26      TIMESERIES AAAAAAAAAAF7     NO

AAAAAAAAAAAD1    15.02      FREE                        YES

AAAAAAAAAAAD2    31.62      FREE                        NO

AAAAAAAAAAAD3    24.33      FREE                        NO

AAAAAAAAAAAD4    6.67       FREE                        NO

AAAAAAAAAAAD5    118.23     FREE                        NO

AAAAAAAAAAAD6    150.17     FREE                        NO

AAAAAAAAAAAD7    1.17       FREE                        NO

AAAAAAAAAAAD8    10         FREE                        NO

AAAAAAAAAAAD9    12.99      FREE                        YES

AAAAAAAAAAAD-    -0.37      TIMESERIES AAAAAAAAAAF8     YES
AAAAAAAA2        -1.02      TIMESERIES AAAAAAAAAAF6     YES
AAA0             -18.58     FREE                        NO

[STORAGE]


AAAAAAAAD0       8.980000 46.000000  0.000000   FUNCTIONAL 0.000000  0.000000  198.000000 0      0.000000
AAAAAB4          -4.020000 25.000000 9.000000   FUNCTIONAL 0.000000  0.000000  1092.000000 0     0.000000

AA3              -1.600000 23.750000 0.000000   FUNCTIONAL 0.000000  0.000000  4550.000000 0     0.000000

AAAAAAAAAAAAAE1  2.420000 14.250000  0.000000   FUNCTIONAL 0.000000  0.000000  37.500000 0       0.000000
AAAAAAAAAAAAAE2  -5.230000 22.900000 0.000000   FUNCTIONAL 0.000000  0.000000  41.250000 0       0.000000

AAAAAAAAD1       20.17    14         0          FUNCTIONAL 0         0         19.625   0        0
AAAAAAAAAAAAAE3  53.860000 9.810000  0.000000   FUNCTIONAL 0.000000  0.000000  60.000000 0       0.000000
AAAAAAAAAAAAAE4  35.070000 10.100000 0.000000   FUNCTIONAL 0.000000  0.000000  78.000000 0       0.000000
AAAAAAAAD2       67.050000 20.200000 0.000000   FUNCTIONAL 0.000000  0.000000  439.625000 0      0.000000

AAAAAAAAAAAAAE5  -1.460000 16.630000 0.000000   FUNCTIONAL 0.000000  0.000000  110.000000 0      0.000000
AAAAAAAAAAAAE1   -0.46    15.46      0          FUNCTIONAL 0         0         1650     0        0
AAAAAAAAAAAAE2   1.21     13.79      0          FUNCTIONAL 0         0         300      0        0
AAAAAAAAAAAAAE6  46.290000 9.380000  0.350000   FUNCTIONAL 0.000000  0.000000  81.000000 0       0.000000

AAAAAAAAAAAAAE7  51.92    12         0          FUNCTIONAL 0         0         64.125   0        0

AAAAAAAAAAAAAE8  55.17    12.5       0          FUNCTIONAL 0         0         124      0        0

AAAAAAAAAAAAAE9  56.42    10.75      0          FUNCTIONAL 0         0         49.75    0        0

AAAAAAAAAAAAAAB0 146.02   19.15      0          FUNCTIONAL 0         0         40       0        0

AAAAAAAAAAAAAE-  101.17   13         0          FUNCTIONAL 0         0         36.75    0        0

AAAAAAAAAAAAAE_  -4.040000 13.710000 0.000000   FUNCTIONAL 0.000000  0.000000  95.000000 0       0.000000

AAAAAAAAD3       18.200000 10.560000 0.000000   FUNCTIONAL 0.000000  0.000000  637.000000 0      0.000000

AAAAAAAAD4       31.940000 16.190000 0.000000   FUNCTIONAL 0.000000  0.000000  403.000000 0      0.000000
AAAAAAAAD5       27.14    12.21      0          FUNCTIONAL 0         0         380.25   0        0

AAAAAAAAD6       120.210000 9.540000 0.000000   FUNCTIONAL 0.000000  0.000000  676.670000 0      0.000000
AAAAAAAAD7       13.570000 10.950000 0.000000   FUNCTIONAL 0.000000  0.000000  750.500000 0      0.000000
AAAAAAAAD8       26.170000 22.500000 0.000000   FUNCTIONAL 0.000000  0.000000  771.667000 0      0.000000

AAAAAAAAD9       63.84    20.78      0          FUNCTIONAL 0         0         240      0        0

AAAAAAAAAAAAE3   53.670000 8.500000  0.000000   FUNCTIONAL 0.000000  0.000000  47.000000 0       0.000000

AAAAAAAAAAAAE4   56.670000 11.830000 0.000000   FUNCTIONAL 0.000000  0.000000  36.000000 0       0.000000

AAAAAAAAAAAAE5   58.170000 9.000000  0.000000   FUNCTIONAL 0.000000  0.000000  36.000000 0       0.000000
AAAAAAAAAAB9     67.25    15.92      0          FUNCTIONAL 0         0         139.5    0        0
AAAAAAAAAAB-     66       17.17      0          FUNCTIONAL 0         0         135      0        0

AAAAAAAAAAAAAAAAAAA1 59   24.17      0          FUNCTIONAL 0         0         99       0        0
AAAAAAAAAAAAAAAA3 -3.58   28.75      0          TABULAR    AA5                        0        0

AAAAAAAAAAB_     -8.74    30         0          FUNCTIONAL 0         0         80       0        0
AAAAAAAABE2      -12.26   24.13      0          FUNCTIONAL 0         0         432.5    0        0

AA4              -1.850000 24.000000 0.000000   FUNCTIONAL 0.000000  0.000000  7100.000000 0     0.000000

AAAAAAAAAAAAE6   2.17     84         0          FUNCTIONAL 0         0         0        0        0
AAAAAAAAAAAAE7   89.170000 11.250000 0.000000   TABULAR    AAAAAAAAAAAAAAAAAAAAAAAAAA4           0 0.000000

AAAAAAAAD-       139.170000 26.580000 0.000000  TABULAR    AAAAAAAAAAAAAAAAAAAAAA1           0 0.000000

AAAAL8           -9.140000 32.140000 0.000000   FUNCTIONAL 0.000000  0.000000  256.000000 0      0.000000

[CONDUITS]


AAAAAB5          AAAAAAAAAAA0     AAAAAAAAA8       262        0.013      0          5.08       0          0

AAAAAAAABE3      AAAAAAAAAA0      AAAAAAAAA8       255        0.013      0          5.08       0          0

AAAAL9           AAAAAAAAAAAA0    AAAAAAAAA6A      76.17      0.013      0          0          0          0

AAAAL-           AAAAAAAAAAA9     AAAAAAAAAK0      226.151    0.013      0          0          0          0

AAAAL_           AAAAAAAAAAAAB8   AAAAAAAAAAAD3    176        0.013      0          0          0          0

AAAAM0           AAAAAAAAAAB1     AAAAAAAAAN4      140        0.013      0          0.83       0          0
AAAAAAAAAAC0     AAAAL0           AAAAAB3          75         0.03       7          7          0          0
AAAAAAAAAAAD_    AAAAAAAA0        AAAAAAAAA5       80         0.013      0          0          0          0
A0               AAAAAAAAAAAAAAA0 AAAAL0           50         0.013      0          0          0          0
AAAAAAAAAAAAAAAA4 AAAAAB3         AAAAAAAAAAAAAAAA3 1300      0.013      0          0          0          0
AAAAAAAAAAAAE8   AAAAAAAAD0       AA3              360        0.013      0          9.16       0          0
AAAAAAAABE4      AAAAAAAAAAAAAB2  AAAAAB4          30         0.013      0          10         0          0
AAAAAAAABE5      AAAAAAAAAAAAA3   AAAAAAAA2        200.76     0.013      0          0          0          0
AAAAAB6          AAAAAAAAA5       AAAAAAAAAAAAA3   60         0.013      0          0          0          0
AAA1             AAAAAB2          AAAAAAAA0        145        0.013      0          0          0          0

AAAAAAAA3        AAAAAAAAAAAAAAAAA0 AAAAAAAABE0    330        0.013      0          0          0          0
AAAAAAAAAAAAAAB1 AAAAAAAAAAAAAAAA0 AAAAAAAAA32     636.57     0.01       0          0          0          0
AAAAM1           AAAAAAAAAAAB1    AAAAAAAAA6Z      30         0.013      0          5.7        0          0

AAAAM2           AA2              AA3              100        0.013      0          0.1        0          0

AAAAAB7          AAAAAAAAAA6      AA4              108.374    0.05       0          0.05       0          0

AAAAAAAAD_       AAAAAAAAAAAAA4   AAAAL5           200.178    0.013      0          0          0          0
AAAAAAAAE0       AAAAAAAAAAAA4    AAAAAAAAAAAC3    180        0.013      0          0          0          0

AAAAAAAAE1       AAAAAAAAAAAAA8   AAAAAAAAB3       28.5       0.013      0          1.81       0          0

AAAAAAAAE2       AAAAAAAAAAAAAD8  AAAAAAAAB4       20         0.013      0          2.41       0          0

AAAAAAAAE3       AAAAAAAAAAAAA9   AAAAAAAAAAAC7    12         0.013      0          0          0          0

AAAAAAAAE4       AAAAAAAAAAAAAD9  AAAAAAAAB5       24.088     0.013      0          1.83       0          0

AAAAAAAAE5       AAAAAAAAAAAAA-   AAAAAAAAAAAC8    56.829     0.013      0          0          0          0

AAAAAAAAE6       AAAAAAAAAAAAD6   AAAAAAAAB6       34         0.013      0          2          0          0

AAAAAAAAE7       AAAAAAAAAAAA6    AAAAAAAAAAAC9    15         0.013      0          0          0          0

AAAAAAAABE6      AAAAAAAAAAAAAAA3 AAAAAAAAAF4      42.925     0.013      0          0.06       0          0

AAAAAAAABE7      AAAAAAAAAAAAAC6  AAAAAAAAAAAAAC7  35         0.013      0          0          0          0

AAAAAAAAE8       AAAAAAAAAAAA9    AAAAAAAAAAAD5    35.167     0.013      0          0          0          0

AAAAAAAAAAAAAAAAA5 AAAAAAAAA7     AAAAAAAAAAAAAB4  25.3       0.013      0          0          0          0
AAAAAAAAAAAAAAAAA6 AAAAAAAAD1     AAAAAAAAAAAC0    58         0.013      3.18       0          0          0

AAAAAAAAAAAAAAAAAAAAA4 AAAAAAAAAAAAD1 AAAAAAAAAAAC6 116.906   0.013      0          0          0          0

AAAAAAAAAAAAAAAAAA0 AAAAAAAAAAAAAC5 AAAAAAAAAAAAAC6 30        0.013      0          0          0          0

AAAAAAAAAAAAAAAAAA1 AAAAAAAAAAAAAC7 AAAAAAAAAAAAAC8 75        0.013      0          0          0          0

AAAAAAAAAAAAAAAAAA2 AAAAAAAAAAAAAC8 AAAAAAAAAW8    30         0.013      0          0.3        0          0

AAAAAAAAAAAAAAAAAA3 AAAAAAAAAAAAAC9 AAAAAAAAAAAAAC- 38.5      0.013      0          0          0          0

AAAAAAAAAAAAAAAAAA4 AAAAAAAAAAAAAC- AAAAAAAAAAAAAC_ 32.66     0.013      0          0          0          0
AAAAAAAAAAAAAAAAA7 AAAAAAAAAAAAAD1 AAAAAAAAA17     15         0.013      0          4.12       0          0
AAAAAAAAAAAAAAAAAA5 AAAAAAAAAAAAAD2 AAAAAAAAAAAAAD3 20        0.013      0          0          0          0
AAAAAAAAAAAAAAAAAA6 AAAAAAAAAAAAAD3 AAAAAAAAAAAAAD4 57.63     0.013      0          0          0          0
AAAAAAAAAAAAAAAAAA7 AAAAAAAAAAAAAD4 AAAAAAAAAAAAAD5 23        0.013      0          2.5        0          0
AAAAAAAAAAAAAAAAAA8 AAAAAAAAAAAAAD5 AAAAAAAAAV2    31.5       0.013      0          0          0          0
AAAAAAAAAAAAAAAA5 AAAAAAAAAAAAC0  AAAAAAAAAAAAC1   25         0.013      0          1.3        0          0

AAAAAAAAAAAAAAAA6 AAAAAAAAAAAAC3  AAAAAAAAAAAC1    86.54      0.013      0          0          0          0
AAAAAAAAAAAAAAAAA8 AAAAAAAAC1     AAAAAAAAAAAAC-   80         0.013      0          0          0          0
AAAAAAAAAAAAAAAAA9 AAAAAAAAC1     AAAAAAAAAAAAD0   13.5       0.013      9.65       0          0          0
AAAAAAAAAAAAAAAA7 AAAAAAAAAAAAD5  AAAAAAAAAAAAA-   62.5       0.013      0          0          0          0
AAAAAAAAAAAAAAAA8 AAAAAAAAAAAAD8  AAAAAAAAAAAA6    46         0.013      0          0          0          0

AAAAAAAAAAAAAAAA9 AAAAAAAAAAAA_   AAAAAAAAAAAC-    853.016    0.013      0          0          0          0

AAAAAAAAAAAAAAAAA- AAAAAAAAC5     AAAAAAAAAAAAD-   10         0.013      8.7        0          0          0
AAAAAAAAAAAAAAAAA_ AAAAAAAAAAAAD- AAAAAAAAAAAC_    10         0.013      0          0          0          0
AAAAAAAAAAAAAE0  AAAAAAAAAAAAAE0  AAAAAAAABD7      50         0.013      0          0          0          0
AAAAAAAAAAAAAAB2 AAAAAAAAAB4      AAAAAAAAAAA0     51.93      0.01       0          0          0          0





AAAAAAA_         AAAAAAAAAAAAAAAA3 AAAAAAAAAB5     50         0.013      0          0          0          0
AAAAAAAA4        AAAAAAAAAAAAAAAA3 AAAAAAAAAB6     50         0.013      0          0          0          0





AAAAAAAA5        AAAAAAAAAAAAAAAA3 AAAAAAAAAB7     50         0.013      0          0          0          0





AAAAAAAA6        AAAAAAAAAAAAAAAA3 AAAAAAAAAB8     50         0.013      0          0          0          0





AAAAAAAA7        AAAAAAAAAAAAAAAA3 AAAAAAAAAB9     50         0.013      0          0          0          0





AAAAAAAA8        AAAAAAAAAAAAAAAA3 AAAAAAAAAB-     50         0.013      0          0          0          0





AAAAAAAA9        AAAAAAAAAAAAAAAA3 AAAAAAAAAB_     50         0.013      0          0          0          0





AAAAAAAA-        AAAAAAAAAAAAAAAA3 AAAAAAAAAC0     50         0.013      0          0          0          0

AAAAAAAABE8      AAAAAAAAAD5      AAAAAAAAAC1      873.15     0.013      0          0          0          0
AAAAAAAABE9      AAAAAAAAAA_      AAAAAAAAAC4      332.91     0.013      0          0.1        0          0
AAAAAAAABE-      AAAAAAAAAC7      AAAAAAAAAC8      333.532    0.013      0          1.7        0          0
AAAAAAAABE_      AAAAAAAAB-       AAAAAAAAAC2      328.746    0.013      0          0.3        0          0
AAAAAAAABF0      AAAAAAAAAC2      AAAAAAAAAC3      319.868    0.013      0          0          0          0
AAAAAAAABF1      AAAAAAAAAC5      AAAAAAAAAC6      337.605    0.013      0          0          0          0
AAAAAAAABF2      AAAAAAAAAC4      AAAAAAAAAC5      327.457    0.013      0          0.3        0          0
AAAAAAAABF3      AAAAAAAAAC-      AAAAAAAAAAAD7    104.581    0.013      0          0          0          0
AAAAAAAABF4      AAAAAAAAB-       AAAAAAAAAC-      484.53     0.013      1.99       6.25       0          0
AAAAAAAABF5      AAAAAAAAAC9      AAAAAAAAB-       205.381    0.013      0          0.55       0          0

AAAAAAAABF6      AAAAAAAAAC3      AAAAAAAAAC_      247.286    0.019      0          2.2        0          0
AAAAAAAABF7      AAAAAAAAAC8      AAAAAAAAB-       328.996    0.013      0          0          0          0
AAAAAAAABF8      AAAAAAAAAC6      AAAAAAAAAC7      328.387    0.013      0          0.5        0          0
AAAAAAAABF9      AAAAAAAAAD-      AAAAAAAAAD_      375.063    0.013      0          0          0          0
AAAAAAAABF-      AAAAAAAAAD8      AAAAAAAAAD4      357.549    0.013      0          0          0          0
AAAAAAAABF_      AAAAAAAAAD4      AAAAAAAAA_S      134.782    0.013      0          0.1        0          0

AAAAAAAABG0      AAAAAAAAB_       AAAAAAAAD1       94.936     0.013      0          0          0          0
AAAAAAAABG1      AAAAAAAAAD6      AAAAAAAAB_       25.83      0.013      0          0.02       0          0
AAAAAAAABG2      AAAAAAAAAM5      AAAAAAAAAD8      350.974    0.013      0          0          0          0
AAAAAAAABG3      AAAAAAAAAD9      AAAAAAAAA_2      96.75      0.013      2.11       4.94       0          0
AAAAAAAABG4      AAAAAAAAAE0      AAAAAAAAAD7      338.339    0.013      0          0          0          0
AAAAAAAABG5      AAAAAAAAA3P      AAAAAAAAAD0      942.986    0.013      0          0.23       0          0

AAAAAAAABG6      AAAAAAAAAAAAAC3  AAAAAAAAD-       58.119     0.014      0          6.47       0          0

AAAAAAAABG7      AAAAAAAAAAAAAAAAA1 AAAAAAAAAE3    375.374    0.014      0          0          0          0
AAAAAAAABG8      AAAAAAAAB9       AAAAAAAAAAAD6    172.255    0.013      4.51       0          0          0
AAAAAAAAAAC1     AAAAAAAAAG4      AAAAAAAAB9       450.356    0.013      0          0.01       0          0
AAAAAAAABG9      AAAAAAAAB9       AAAAAAAAAE7      414.462    0.013      0          0          0          0
AAAAAAAABG-      AAAAAAAAAE7      AAAAAAAAAE6      275.745    0.013      0          0          0          0
AAAAAAAABG_      AAAAAAAAAG3      AAAAAAAAAF-      292.48     0.013      0          0          0          0
AAAAAAAABH0      AAAAAAAAAE8      AAAAAAAAAF6      288.014    0.013      0          0          0          0
AAAAAAAABH1      AAAAAAAAAE6      AAAAAAAAAE8      199.376    0.013      0          0          0          0
AAAAAAAABH2      AAAAAAAAAF4      AAAAAAAAAF3      220.242    0.013      0          0          0          0
AAAAAAAABH3      AAAAAAAAAE-      AAAAAAAAAE9      304.553    0.013      0          0          0          0
AAAAAAAABH4      AAAAAAAAAE_      AAAAAAAAAE-      224.258    0.013      0          0          0          0
AAAAAAAABH5      AAAAAAAAAF0      AAAAAAAAAE_      359.613    0.013      0          0          0          0
AAAAAAAABH6      AAAAAAAAAF1      AAAAAAAAAF0      329.929    0.013      0          0          0          0
AAAAAAAABH7      AAAAAAAAAF3      AAAAAAAAAF2      302.738    0.013      0          0          0          0
AAAAAAAABH8      AAAAAAAAAF2      AAAAAAAAAF1      292.482    0.013      0          0          0          0
AAAAAAAABH9      AAAAAAAAAE3      AAAAAAAAAF9      244.039    0.013      0          0          0          0

AAAAAAAABH-      AAAAAAAAAF5      AAAAAAAAAAAAAAA3 98.632     0.013      0          0.6        0          0
AAAAAAAABH_      AAAAAAAAAF6      AAAAAAAAAF5      38.153     0.013      0          0.11       0          0
AAAAAAAABI0      AAAAAAAAAG2      AAAAAAAAAF6      277.17     0.013      0          3.47       0          0
AAAAAAAABI1      AAAAAAAAAF7      AAAAAAAAAG2      211.55     0.013      0          0          0          0
AAAAAAAABI2      AAAAAAAAAF8      AAAAAAAAAF7      205.63     0.013      0          0          0          0
AAAAAAAABI3      AAAAAAAAAF9      AAAAAAAAAF8      238.162    0.013      0          0          0          0
AAAAAAAABI4      AAAAAAAAAF-      AAAAAAAAAF_      231.85     0.013      0          0.83       0          0
AAAAAAAABI5      AAAAAAAAAF_      AAAAAAAAAAAAB1   347.703    0.013      0          0          0          0
AAAAAAAABI6      AAAAAAAAAAA7     AAAAAAAAAAA6     566.58     0.013      0          0          0          0
AAAAAAAABI7      AAAAAAAAAAA6     AAAAAAAAAAA5     314.4      0.013      0          0          0          0
AAAAAAAABI8      AAAAAAAAAAA5     AAAAAAAAAAA4     291.8      0.013      0          0          0          0
AAAAAAAABI9      AAAAAAAAAAA4     AAAAAAAAAAA3     295.78     0.013      0          0          0          0
AAAAAAAABI-      AAAAAAAAAAA3     AAAAAAAAAG1      101.44     0.013      0          0          0          0

AAAAAAAABI_      AAAAAAAAAG9      AAAAAAAAAG6      471.86     0.013      0          0          0          0
AAAAAAAABJ0      AAAAAAAAAH3      AAAAAAAAAH2      283.983    0.013      0          0.71       0          0
AAAAAAAABJ1      AAAAAAAAAG7      AAAAAAAAAI2      1067.325   0.013      0          0          0          0
AAAAAAAABJ2      AAAAAAAAAG6      AAAAAAAAAG8      340.272    0.013      0          0          0          0
AAAAAAAABJ3      AAAAAAAAAG-      AAAAAAAAAG_      490.46     0.013      0          0.49       0          0
AAAAAAAABJ4      AAAAAAAAAG8      AAAAAAAAAG7      190.652    0.013      0          0          0          0
AAAAAAAABJ5      AAAAAAAAAG_      AAAAAAAAAH0      52.938     0.019      0          0          0          0
AAAAAAAABJ6      AAAAAAAAAH1      AAAAAAAAAG-      111.426    0.019      0          0.84       0          0

AAAAAAAABJ7      AAAAAAAAAH2      AAAAAAAAAH1      129.401    0.013      0          4.65       0          0
AAAAAAAABJ8      AAAAAAAAAH4      AAAAAAAAAH3      523.988    0.013      0          0          0          0
AAAAAAAABJ9      AAAAAAAAAH5      AAAAAAAAAH4      146.98     0.013      0          0.06       0          0
AAAAAAAABJ-      AAAAAAAAAG5      AAAAAAAAAH5      199.442    0.013      0          0.06       0          0
AAAAAAAABJ_      AAAAAAAAAH6      AAAAAAAAAG5      281.97     0.013      0          0          0          0

AAAAAAAABK0      AAAAAAAAAH7      AAAAAAAAAAA8     276.789    0.013      0          0          0          0

AAAAAAAAAAC2     AAAAAAAAAAA8     AAAAAAAAAH1      132.109    0.013      0          7.3        0          0

AAAAAAAABK1      AAAAAAAAAH7      AAAAAAAAAH8      304.553    0.013      0          0          0          0
AAAAAAAABK2      AAAAAAAAAAA8     AAAAAAAAAG9      48.054     0.013      0          0          0          0

AAAAAAAABK3      AAAAAAAAAH9      AAAAAAAAAH8      416.452    0.013      0          0          0          0
AAAAAAAABK4      AAAAAAAAAH0      AAAAAAAAAI0      318.755    0.019      0          0          0          0
AAAAAAAABK5      AAAAAAAAAE9      AAAAAAAAAH-      295.682    0.013      0          0          0          0
AAAAAAAABK6      AAAAAAAAAH-      AAAAAAAAAH6      304.581    0.013      0          0          0          0
AAAAAAAABK7      AAAAAAAAAH_      AAAAAAAAAN9      29.422     0.013      0.83       0          0          0
AAAAAAAABK8      AAAAAAAAAI0      AAAAAAAAAI1      592.515    0.013      0          0          0          0
AAAAAAAABK9      AAAAAAAAAI5      AAAAAAAAAI6      220.351    0.013      0          0          0          0
AAAAAAAABK-      AAAAAAAAAI3      AAAAAAAAAI2      163.973    0.013      0          0          0          0
AAAAAAAABK_      AAAAAAAAAI4      AAAAAAAAAI3      138.817    0.013      0          0          0          0
AAAAAAAABL0      AAAAAAAAAI6      AAAAAAAAAI4      179.65     0.013      0          0          0          0
AAAAAAAABL1      AAAAAAAAAI7      AAAAAAAAAI9      241.808    0.013      0.4        0          0          0
AAAAAAAABL2      AAAAAAAAAI9      AAAAAAAAAI-      29.472     0.013      0          0          0          0
AAAAAAAABL3      AAAAAAAAAI-      AAAAAAAAAI8      466.509    0.013      0          0          0          0
AAAAAAAABL4      AAAAAAAAAJ0      AAAAAAAAAAAB0    92         0.013      0          0          0          0

AAAAAAAAAAAE0    AAAAAAAAAAAB0    AAAAAAAAAI_      231.145    0.013      0          0          0          0
AAAAAAAABL5      AAAAAAAAAJ1      AAAAAAAAAJ0      39.315     0.013      0          0          0          0
AAAAAAAABL6      AAAAAAAAAJ2      AAAAAAAAAAAB0    142.803    0.013      0          0          0          0
AAAAAAAABL7      AAAAAAAAAJ3      AAAAAAAAAJ2      284.82     0.013      0          0          0          0
AAAAAAAABL8      AAAAAAAAAJ7      AAAAAAAAAJ5      401.163    0.013      0          0          0          0
AAAAAAAABL9      AAAAAAAAAJ5      AAAAAAAAAJ6      370.484    0.013      0          0          0          0
AAAAAAAABL-      AAAAAAAAAJ8      AAAAAAAAAJ7      346.813    0.013      0          0          0          0
AAAAAAAABL_      AAAAAAAAAJ-      AAAAAAAAAJ8      175.968    0.013      0          0          0          0
AAAAAAAABM0      AAAAAAAAAJ4      AAAAAAAAAJ1      735.547    0.013      0          0          0          0

AAAAAAAABM1      AAAAAAAAAJ9      AAAAAAAAAJ-      426.13     0.013      0          0          0          0
AAAAAAAABM2      AAAAAAAAAK6      AAAAAAAAAK5      204.567    0.013      0          0          0          0

AAAAAAAABM3      AAAAAAAAA26      AAAAAAAAAAA9     570.151    0.013      0          0          0          0
AAAAAAAABM4      AAAAAAAAAK1      AAAAAAAAAAA9     50         0.013      0          0          0          0
AAAAAAAABM5      AAAAAAAAAK2      AAAAAAAAAK1      251.691    0.013      0          0          0          0
AAAAAAAABM6      AAAAAAAAAK3      AAAAAAAAAK2      304.418    0.013      0          0          0          0
AAAAAAAABM7      AAAAAAAAAK4      AAAAAAAAAK3      64.928     0.013      0          0          0          0
AAAAAAAABM8      AAAAAAAAAK5      AAAAAAAAAK4      174.994    0.013      0          0          0          0
AAAAAAAABM9      AAAAAAAAAK7      AAAAAAAAAK6      185.637    0.013      0          0          0          0
AAAAAAAABM-      AAAAAAAAAK8      AAAAAAAAAK7      284.475    0.013      0          0          0          0
AAAAAAAABM_      AAAAAAAAAK9      AAAAAAAAAK8      336.421    0.013      0          0          0          0
AAAAAAAABN0      AAAAAAAAAK-      AAAAAAAAAK9      289.035    0.013      0          0          0          0
AAAAAAAABN1      AAAAAAAAAK_      AAAAAAAAAK-      179.988    0.013      0          0          0          0
AAAAAAAABN2      AAAAAAAAAL1      AAAAAAAAAK_      157.976    0.013      0          0          0          0
AAAAAAAABN3      AAAAAAAAAL0      AAAAAAAAAL1      231.394    0.013      0          0          0          0
AAAAAAAABN4      AAAAAAAAAM1      AAAAAAAAAL0      230.159    0.013      0          0          0          0
AAAAAAAABN5      AAAAAAAAAL2      AAAAAAAAAJ_      258.892    0.013      0          0          0          0
AAAAAAAABN6      AAAAAAAAAL5      AAAAAAAAAM1      308.5      0.013      0          0          0          0
AAAAAAAABN7      AAAAAAAAAL6      AAAAAAAAAL5      273.06     0.013      0          0          0          0
AAAAAAAABN8      AAAAAAAAAL7      AAAAAAAAAL6      323.151    0.013      0          0          0          0
AAAAAAAABN9      AAAAAAAAAL-      AAAAAAAAAL7      225.5      0.013      0          0          0          0
AAAAAAAABN-      AAAAAAAAAL_      AAAAAAAAAL-      263.705    0.013      0          0          0          0
AAAAAAAABN_      AAAAAAAAAAA-     AAAAAAAAAL_      184.474    0.013      0          0          0          0
AAAAAAAAAAC3     AAAAAAAAAM0      AAAAAAAAAAA-     132.191    0.013      0          0          0          0
AAAAAAAABO0      AAAAAAAAAL9      AAAAAAAAAM2      266.394    0.013      0          0          0          0
AAAAAAAABO1      AAAAAAAAAL8      AAAAAAAAAL9      277.319    0.013      0          0          0          0
AAAAAAAABO2      AAAAAAAAAI_      AAAAAAAAAL8      206.327    0.013      0          0          0          0
AAAAAAAABO3      AAAAAAAAAM2      AAAAAAAAAM0      535.019    0.013      0          0          0          0
AAAAAAAABO4      AAAAAAAAAAA_     AAAAAAAAAE1      850        0.013      0          0          0          0
AAAAAAAAAAC4     AAAAAAAAAM4      AAAAAAAAAAA_     150        0.013      0          0          0          0
AAAAAAAABO5      AAAAAAAAAM6      AAAAAAAAAM7      94.61      0.013      0          0          0          0
AAAAAAAABO6      AAAAAAAAAM7      AAAAAAAAAM3      151.78     0.013      0          0          0          0
AAAAAAAABO7      AAAAAAAAAO4      AAAAAAAAAO3      77.128     0.013      0.83       11.16      0          0

AAAAAAAABO8      AAAAAAAAAN6      AAAAL5           25.532     0.013      0          0.52       0          0
AAAAAAAABO9      AAAAAAAAAN-      AAAAAAAAAN_      368.88     0.013      0          0.1        0          0
AAAAAAAABO-      AAAAAAAAAM_      AAAAAAAAAM-      52.58      0.013      0          0          0          0
AAAAAAAABO_      AAAAAAAAAN3      AAAAAAAAAN0      148.811    0.013      0.83       0.83       0          0
AAAAAAAABP0      AAAAAAAAAN0      AAAAAAAAAAB0     180.493    0.013      0          0          0          0
AAAAAAAABP1      AAAAAAAAAN4      AAAAAAAAAN3      63.506     0.013      0.83       0.83       0          0
AAAAAAAABP2      AAAAAAAAAN2      AAAAAAAAAAB1     70         0.013      0          0          0          0
AAAAAAAABP3      AAAAAAAAAN1      AAAAAAAAAN2      138.178    0.013      0.83       0          0          0
AAAAAAAABP4      AAAAAAAAAO0      AAAAAAAAAN1      339.96     0.013      0          0.83       0          0
AAAAAAAABP5      AAAAAAAAAO1      AAAAAAAAAO0      44.09      0.013      0          0          0          0
AAAAAAAABP6      AAAAAAAAAN7      AAAAAAAAAAB1     117.681    0.013      0          0          0          0
AAAAAAAABP7      AAAAAAAAAN8      AAAAAAAAAN7      266.745    0.013      0          0          0          0
AAAAAAAABP8      AAAAAAAAAN9      AAAAAAAAAN8      205.077    0.013      0          0          0          0
AAAAAAAABP9      AAAAAAAAAO2      AAAAAAAAAO1      265.72     0.013      0          0          0          0
AAAAAAAABP-      AAAAAAAAAM-      AAAAAAAAAN-      207.17     0.013      0          0          0          0
AAAAAAAABP_      AAAAAAAAAO3      AAAAAAAABB6      280.733    0.013      0.83       0.93       0          0
AAAAAAAABQ0      AAAAAAAABB6      AAAAAAAABB5      346.291    0.013      0          0          0          0

AAAAAAAABQ1      AAAAAAAAAO5      AAAAAAAAA0E      438.458    0.013      0          0          0          0
AAAAAAAABQ2      AAAAAAAAAO8      AAAAAAAAAO7      89.042     0.013      0          0.2        0          0
AAAAAAAABQ3      AAAAAAAAAO9      AAAAAAAAAO8      125.66     0.013      0          0.83       0          0
AAAAAAAABQ4      AAAAAAAAAO6      AAAAAAAAAP0      574.3      0.015      0          0.27       0          0

AAAAAAAABQ5      AAAAAAAAAP0      AAAAAAAAAQ0      239.04     0.013      0          0          0          0

AAAAAAAABQ6      AAAAAAAAAA-      AAAAAAAAAAAAB9   37.894     0.013      3.16       0          0          0

AAAAAAAABQ7      AAAAAAAAAAAAAAA4 AAAAAAAAAAAAAAA5 37.694     0.013      0          0          0          0
AAAAAAAABQ8      AAAAAAAAAQ2      AAAAAAAAAP7      452.349    0.013      0          2.84       0          0
AAAAAAAABQ9      AAAAAAAAAAAAAAA5 AAAAAAAAAP0      69.754     0.013      0          11.63      0          0

AAAAAAAABQ-      AAAAAAAAAQ3      AAAAAAAAAA-      490.91     0.013      0          3.24       0          0

AAAAAAAABQ_      AAAAAAAAAAAAB9   AAAAAAAAAO-      46.289     0.013      0          0          0          0
AAAAAAAABR0      AAAAAAAAAO_      AAAAAAAAAQ2      256.38     0.013      0          0.23       0          0
AAAAAAAABR1      AAAAAAAAAQ1      AAAAAAAAAP_      33.39      0.013      0          0          0          0
AAAAAAAABR2      AAAAAAAAAQ0      AAAAAAAAAQ1      25.56      0.013      0          0          0          0
AAAAAAAABR3      AAAAAAAAAO-      AAAAAAAAAO_      54.003     0.013      0          0          0          0
AAAAAAAABR4      AAAAAAAAAP7      AAAAAAAAAP4      285.678    0.013      0          6.58       0          0
AAAAAAAABR5      AAAAAAAAAP2      AAAAAAAAAP1      20.775     0.013      0          0          0          0
AAAAAAAABR6      AAAAAAAAAP4      AAAAAAAAAP2      309.809    0.013      0          0          0          0
AAAAAAAABR7      AAAAAAAAAP_      AAAAAAAAAP-      119.009    0.013      0          0          0          0
AAAAAAAABR8      AAAAAAAAAP-      AAAAAAAAAP9      182.676    0.013      0          0          0          0
AAAAAAAABR9      AAAAAAAAAP9      AAAAAAAAAP8      126.029    0.013      0          0          0          0
AAAAAAAABR-      AAAAAAAAAP8      AAAAAAAAAP6      220.554    0.013      0          0          0          0
AAAAAAAABR_      AAAAAAAAAP6      AAAAAAAAAP5      98.112     0.013      0          1.53       0          0
AAAAAAAABS0      AAAAAAAAAP5      AAAAAAAAAP3      339.598    0.013      0          5.32       0          0
AAAAAAAABS1      AAAAAAAAAU8      AAAAAAAAAR3      327.34     0.013      0          0          0          0
AAAAAAAABS2      AAAAAAAAAQ6      AAAAAAAAAQ5      436.878    0.013      0          0          0          0
AAAAAAAABS3      AAAAAAAAAQ5      AAAAAAAAAQ4      433.64     0.013      0          0          0          0
AAAAAAAABS4      AAAAAAAAAQ7      AAAAAAAAAQ6      71.679     0.013      0          0          0          0
AAAAAAAABS5      AAAAAAAAAQ8      AAAAAAAAAQ7      87.384     0.013      0          0.5        0          0

AAAAAAAABS6      AAAAAAAAAQ9      AAAAAAAAAQ8      213.87     0.013      0          0          0          0

AAAAAAAABS7      AAAAAAAAAR0      AAAAAAAAAQ_      43.308     0.013      0          0          0          0
AAAAAAAABS8      AAAAAAAAAQ-      AAAAAAAAAQ9      294.207    0.013      0          0          0          0
AAAAAAAABS9      AAAAAAAAAQ_      AAAAAAAAAQ-      294.846    0.013      0          0          0          0
AAAAAAAABS-      AAAAAAAAAR1      AAAAAAAAAR0      261        0.013      0          0          0          0
AAAAAAAABS_      AAAAAAAAAR2      AAAAAAAAAR1      293.45     0.013      0          0          0          0
AAAAAAAABT0      AAAAAAAAAR3      AAAAAAAAAR2      30.42      0.013      0          0          0          0
AAAAAAAABT1      AAAAAAAAAR4      AAAAAAAAAU8      492.73     0.013      0          0          0          0
AAAAAAAABT2      AAAAAAAAAS5      AAAAAAAAAR5      296.781    0.013      0          0          0          0
AAAAAAAABT3      AAAAAAAAAR5      AAAAAAAAAR6      457.649    0.013      0          0          0          0
AAAAAAAABT4      AAAAAAAAAR6      AAAAAAAAAR7      299.948    0.013      0          0          0          0
AAAAAAAABT5      AAAAAAAAAR7      AAAAAAAAAR-      329.252    0.013      0          0          0          0
AAAAAAAABT6      AAAAAAAAAR-      AAAAAAAAAR8      281.982    0.013      0          0          0          0
AAAAAAAABT7      AAAAAAAAAR8      AAAAAAAAAR9      303.43     0.013      0          0          0          0

AAAAAAAABT8      AAAAAAAAAR9      AAAAAAAAAV0      308.54     0.013      0          8.89       0          0
AAAAAAAABT9      AAAAAAAAAT9      AAAAAAAAAR_      202.131    0.013      0          0          0          0
AAAAAAAABT-      AAAAAAAAAR_      AAAAAAAAAS0      50.318     0.013      0          0          0          0
AAAAAAAABT_      AAAAAAAAAS0      AAAAAAAAAS1      143.07     0.013      0          0          0          0
AAAAAAAABU0      AAAAAAAAAS1      AAAAAAAAAS2      20.128     0.013      0          0          0          0
AAAAAAAABU1      AAAAAAAAAS2      AAAAAAAAAS3      226.485    0.013      0          0          0          0
AAAAAAAABU2      AAAAAAAAAS3      AAAAAAAAAS4      290.503    0.013      0          0          0          0
AAAAAAAABU3      AAAAAAAAAS4      AAAAAAAAAS5      258.458    0.013      0          0          0          0
AAAAAAAABU4      AAAAAAAAAS6      AAAAAAAAAS7      300.99     0.013      0          0          0          0
AAAAAAAABU5      AAAAAAAAAS7      AAAAAAAAAS9      163.02     0.013      0          0          0          0
AAAAAAAABU6      AAAAAAAAAS8      AAAAAAAAAS-      358.739    0.013      0          0          0          0
AAAAAAAABU7      AAAAAAAAAS9      AAAAAAAAA0G      154.05     0.013      0          0          0          0
AAAAAAAABU8      AAAAAAAAAS-      AAAAAAAAA01      62.837     0.013      0          0.5        0          0
AAAAAAAABU9      AAAAAAAAAT2      AAAAAAAAAS_      330.91     0.013      0          0          0          0
AAAAAAAABU-      AAAAAAAAAT2      AAAAAAAAAT1      380.56     0.013      0          0          0          0
AAAAAAAABU_      AAAAAAAAAT1      AAAAAAAAAT0      337.823    0.013      0          0          0          0
AAAAAAAABV0      AAAAAAAAAT3      AAAAAAAAAT1      50.136     0.013      0          0          0          0
AAAAAAAABV1      AAAAAAAAAT4      AAAAAAAAAT3      262.37     0.013      0          0          0          0
AAAAAAAABV2      AAAAAAAAAT5      AAAAAAAAAT4      357.974    0.013      0          0          0          0
AAAAAAAABV3      AAAAAAAAAU9      AAAAAAAAAR4      22.77      0.013      0          0          0          0

AAAAAAAABV4      AAAAAAAAAT-      AAAAAAAAAT9      295.01     0.012      0          0          0          0
AAAAAAAABV5      AAAAAAAAAT0      AAAAAAAAAT7      358.682    0.013      0          0          0          0
AAAAAAAABV6      AAAAAAAAAT6      AAAAAAAAAT8      251.988    0.013      0          0          0          0
AAAAAAAABV7      AAAAAAAAAU7      AAAAAAAAAU6      17.72      0.013      0          0          0          0
AAAAAAAABV8      AAAAAAAAAU6      AAAAAAAAAU5      449.414    0.013      0          0          0          0
AAAAAAAABV9      AAAAAAAAAU5      AAAAAAAAAU4      292.908    0.013      0          0          0          0
AAAAAAAABV-      AAAAAAAAAU4      AAAAAAAAAU3      350.954    0.013      0          0          0          0
AAAAAAAABV_      AAAAAAAAAU3      AAAAAAAAAU2      255.988    0.013      0          0          0          0
AAAAAAAABW0      AAAAAAAAAU2      AAAAAAAAAU1      251.261    0.013      0          0          0          0
AAAAAAAABW1      AAAAAAAAAU1      AAAAAAAAAU0      132.037    0.013      0          0          0          0
AAAAAAAABW2      AAAAAAAAAU0      AAAAAAAAAT_      291.258    0.013      0          0          0          0
AAAAAAAABW3      AAAAAAAAAT_      AAAAAAAAAT-      188.31     0.013      0          2.94       0          0
AAAAAAAABW4      AAAAAAAAA3Z      AAAAAAAAAT6      269.146    0.013      0          0          0          0
AAAAAAAABW5      AAAAAAAAAU-      AAAAAAAAAU9      350.35     0.013      0          0          0          0
AAAAAAAABW6      AAAAAAAAAS_      AAAAAAAAAU-      342.15     0.013      0          0          0          0
AAAAAAAABW7      AAAAAAAAAU_      AAAAAAAAAO5      402.388    0.013      0          0          0          0
AAAAAAAABW8      AAAAAAAAAX9      AAAAAAAAAY7      23.5       0.013      0          0          0          0
AAAAAAAABW9      AAAAAAAAAV2      AAAAAAAAAV3      114.147    0.013      0          0          0          0
AAAAAAAABW-      AAAAAAAAAV3      AAAAAAAAAV4      470.377    0.013      0          0          0          0
AAAAAAAABW_      AAAAAAAAAV4      AAAAAAAAAW1      101.9      0.013      0          0          0          0
AAAAAAAABX0      AAAAAAAAAP1      AAAAAAAAAX1      289.369    0.013      0          0          0          0
AAAAAAAABX1      AAAAAAAAAP3      AAAAAAAAAX2      253.073    0.013      0          0          0          0
AAAAAAAABX2      AAAAAAAAAV5      AAAAAAAAAX8      264.734    0.013      0          0          0          0
AAAAAAAABX3      AAAAAAAAAW3      AAAAAAAAAV5      516.721    0.013      0          0          0          0
AAAAAAAABX4      AAAAAAAAAW6      AAAAAAAAAV6      153.2      0.013      0          0          0          0
AAAAAAAABX5      AAAAAAAAAV6      AAAAAAAAAV7      82.59      0.013      0          0          0          0
AAAAAAAABX6      AAAAAAAAAV7      AAAAAAAAAV8      99.57      0.013      0          0          0          0
AAAAAAAABX7      AAAAAAAAAV8      AAAAAAAAAV9      43.58      0.013      0          0          0          0
AAAAAAAABX8      AAAAAAAAAV9      AAAAAAAAAAAAAC8  82.94      0.013      0          0          0          0

AAAAAAAABX9      AAAAAAAAAW8      AAAAAAAAAV-      168.256    0.013      0          0          0          0
AAAAAAAABX-      AAAAAAAAAV-      AAAAAAAAAV_      152.235    0.013      0          0          0          0
AAAAAAAABX_      AAAAAAAAAV_      AAAAAAAAAW0      423.464    0.013      0          0          0          0
AAAAAAAABY0      AAAAAAAAAW0      AAAAAAAAAW1      72.71      0.013      0          1.55       0          0
AAAAAAAABY1      AAAAAAAAAW1      AAAAAAAAAW2      71.956     0.013      0          0          0          0
AAAAAAAABY2      AAAAAAAAAW2      AAAAAAAAAW5      144.52     0.013      0          0          0          0
AAAAAAAABY3      AAAAAAAAAW4      AAAAAAAAAW3      156.399    0.013      0          0          0          0
AAAAAAAABY4      AAAAAAAAAW5      AAAAAAAAAW4      216.512    0.013      0          0          0          0

AAAAAAAABY5      AAAAAAAAAAAAB5   AAAAAAAAAAAD1    136.155    0.013      0          0          0          0
AAAAAAAAAAC5     AAAAAAAAAAAAB4   AAAAAAAAAAAAB5   147        0.013      0          0          0          0
AAAAAAAABY6      AAAAAAAAAW7      AAAAAAAAD3       490        0.013      0          0.83       0          0
AAAAAAAABY7      AAAAAAAAAW9      AAAAAAAAAX0      50.78      0.013      0          0          0          0
AAAAAAAABY8      AAAAAAAAAW-      AAAAAAAAAX9      220.834    0.013      0          0          0          0
AAAAAAAABY9      AAAAAAAAAW_      AAAAAAAAAW3      442.6      0.013      0          0          0          0
AAAAAAAABY-      AAAAAAAAAX0      AAAAAAAAAW_      273.02     0.013      0          0          0          0
AAAAAAAABY_      AAAAAAAAAX1      AAAAAAAAAV1      237.672    0.013      0          0          0          0
AAAAAAAABZ0      AAAAAAAAAX2      AAAAAAAAAY3      221.261    0.013      0          0          0          0
AAAAAAAABZ1      AAAAAAAAAV1      AAAAAAAAAX4      325.926    0.013      0          0          0          0
AAAAAAAABZ2      AAAAAAAAAX3      AAAAAAAAA1P      539.27     0.013      0          0          0          0
AAAAAAAABZ3      AAAAAAAAAX4      AAAAAAAAAX3      246.85     0.013      0          0          0          0
AAAAAAAABZ4      AAAAAAAAAX6      AAAAAAAAAX7      238.349    0.013      0          0          0          0
AAAAAAAABZ5      AAAAAAAAAX7      AAAAAAAAAX8      224.78     0.013      0          6.87       0          0
AAAAAAAABZ6      AAAAAAAAAX5      AAAAAAAAAX6      299.669    0.013      0          0          0          0
AAAAAAAABZ7      AAAAAAAAAY3      AAAAAAAAAX5      272.126    0.013      0          0          0          0
AAAAAAAABZ8      AAAAAAAAAX9      AAAAAAAAAY8      17.768     0.013      0          0          0          0
AAAAAAAABZ9      AAAAAAAAAAAAAAA6 AAAAAAAAAX-      154.208    0.013      0          0          0          0
AAAAAAAABZ-      AAAAAAAAAX-      AAAAAAAAAZ0      169.609    0.013      0          9.63       0          0
AAAAAAAABZ_      AAAAAAAAAX_      AAAAAAAAAZ4      263        0.013      0          2.08       0          0
AAAAAAAAB0A      AAAAAAAAAY0      AAAAAAAAAX_      267.83     0.013      0          1          0          0
AAAAAAAAB0B      AAAAAAAAAY1      AAAAAAAAAY0      32.09      0.013      0          0          0          0
AAAAAAAAB0C      AAAAAAAAA3Y      AAAAAAAAAY2      33.63      0.013      0          0          0          0
AAAAAAAAB0D      AAAAAAAAAY2      AAAAAAAAAY1      236.17     0.013      0          0.66       0          0

AAAAAAAAB0E      AAAAAAAAAY4      AAAAAAAAAY3      156.927    0.013      0          0          0          0

AAAAAAAAB0F      AAAAAAAAAY5      AAAAAAAAAY4      53.306     0.013      0          0          0          0

AAAAAAAAB0G      AAAAAAAAAY6      AAAAAAAAAY5      197.246    0.013      0          0          0          0

AAAAAAAAB0H      AAAAAAAAAY7      AAAAAAAAAY6      160.321    0.013      0          0          0          0
AAAAAAAAB0I      AAAAAAAAAY8      AAAAAAAAAY7      15.42      0.013      0          0          0          0
AAAAAAAAB0J      AAAAAAAAAY9      AAAAAAAAAY8      312        0.013      0          0          0          0
AAAAAAAAB0K      AAAAAAAAAY9      AAAAAAAAAY-      195.27     0.013      0          0          0          0
AAAAAAAAB0L      AAAAAAAAAY_      AAAAAAAAAY-      122.726    0.013      0          0          0          0
AAAAAAAAB0M      AAAAAAAAAZ0      AAAAAAAAAY_      74.749     0.013      0          0          0          0
AAAAAAAAB0N      AAAAAAAAAZ1      AAAAAAAAAZ0      58.291     0.013      0          0.25       0          0
AAAAAAAAB0O      AAAAAAAAAZ2      AAAAAAAAAZ1      143.612    0.013      0          0          0          0
AAAAAAAAB0P      AAAAAAAAAZ3      AAAAAAAAAZ2      144.405    0.013      0          0          0          0
AAAAAAAAB0Q      AAAAAAAAAZ4      AAAAAAAAAZ3      283.896    0.013      0          0          0          0

AAAAAAAAB0R      AAAAAAAAA0_      AAAAAAAAD5       71.9       0.013      0          1.8        0          0

AAAAAAAAB0S      AAAAAAAAAZ-      AAAAAAAAAZ6      288.578    0.013      0          0          0          0
AAAAAAAAB0T      AAAAAAAAAZ7      AAAAAAAAAZ8      479.071    0.013      0          0          0          0
AAAAAAAAB0U      AAAAAAAAAZ5      AAAAAAAAAZ7      457.935    0.013      0          0.5        0          0

AAAAAAAAB0V      AAAAAAAAAZ8      AAAAAAAAAZ9      292.01     0.013      0          0          0          0

AAAAAAAAB0W      AAAAAAAAAZ9      AAAAAAAAAZ-      39.688     0.013      0          0          0          0
AAAAAAAAB0X      AAAAAAAAAZ_      AAAAAAAAAW7      347.837    0.013      0          0.49       0          0
AAAAAAAAB0Y      AAAAAAAAAZ6      AAAAAAAAAZ_      419.768    0.013      0          0          0          0
AAAAAAAAB0Z      AAAAAAAAA0B      AAAAAAAAA0A      24.378     0.013      0          0          0          0
AAAAAAAAB00      AAAAAAAAA1G      AAAAAAAAA0B      322.115    0.013      0          0          0          0
AAAAAAAAB01      AAAAAAAAA0C      AAAAAAAAAZ5      145.222    0.013      0          0          0          0
AAAAAAAAB02      AAAAAAAAA0F      AAAAAAAAA3Y      316.16     0.015      0          2.27       0          0
AAAAAAAAB03      AAAAAAAAA0D      AAAAAAAAA0C      115.704    0.013      0          0          0          0
AAAAAAAAB04      AAAAAAAAA0E      AAAAAAAAA0D      571.537    0.013      0          0.5        0          0
AAAAAAAAB05      AAAAAAAAA0N      AAAAAAAAA0O      131.41     0.013      0.42       0.02       0          0
AAAAAAAAB06      AAAAAAAAAAAA-    AAAAAAAAAAAD9    30.289     0.013      0          0          0          0
AAAAAAAAB07      AAAAAAAAA0L      AAAAAAAAA0M      151.738    0.013      0          0          0          0
AAAAAAAAB08      AAAAAAAAA0O      AAAAAAAAA0L      241.977    0.013      0          0          0          0
AAAAAAAAB09      AAAAAAAAA0K      AAAAAAAAA0J      59.563     0.013      0          0          0          0
AAAAAAAAB0-      AAAAAAAAA0H      AAAAAAAAD7       118.692    0.013      0          0.53       0          0
AAAAAAAAB0_      AAAAAAAAA0M      AAAAAAAAA0K      71.434     0.013      0          0          0          0

AAAAAAAAB1A      AAAAAAAAA0P      AAAAAAAAA0I      90.498     0.013      0          0          0          0

AAAAAAAAB1B      AAAAAAAAA0J      AAAAAAAAAAAAAD5  106        0.013      0          0          0          0

AAAAAAAAB1C      AAAAAAAAA0I      AAAAAAAAA0H      91.084     0.013      0          6.89       0          0

AAAAAAAAB1D      AAAAAAAAA0Q      AAAAAAAAA0P      43.762     0.013      0          0          0          0

AAAAAAAAB1E      AAAAAAAAA0R      AAAAAAAAA0Q      48.134     0.013      0          0          0          0
AAAAAAAAB1F      AAAAAAAAA0T      AAAAAAAAA0S      50.18      0.013      0          7.3        0          0
AAAAAAAAB1G      AAAAAAAAA0U      AAAAAAAAA0T      115.12     0.013      0          0          0          0
AAAAAAAAB1H      AAAAAAAAA0V      AAAAAAAAA0U      132.07     0.013      0          0          0          0
AAAAAAAAB1I      AAAAAAAAA0W      AAAAAAAAA0V      122.59     0.013      0          0          0          0
AAAAAAAAB1J      AAAAAAAAA05      AAAAAAAAA0W      110.51     0.013      0          0          0          0
AAAAAAAAB1K      AAAAAAAAA03      AAAAAAAAA02      212.366    0.013      0          0          0          0

AAAAAAAAB1L      AAAAAAAAA0Z      AAAAAAAAA00      303.644    0.013      0          0          0          0

AAAAAAAAB1M      AAAAAAAAA0S      AAAAAAAAA0R      109.791    0.013      0          0          0          0
AAAAAAAAB1N      AAAAAAAAA0Y      AAAAAAAAA0X      254.741    0.013      0          0          0          0
AAAAAAAAB1O      AAAAAAAAA02      AAAAAAAAA0Y      359.689    0.013      0          0          0          0

AAAAAAAAB1P      AAAAAAAAA00      AAAAAAAAA0S      233.173    0.013      0          0          0          0

AAAAAAAAB1Q      AAAAAAAAA0X      AAAAAAAAA0Z      254.06     0.013      0          0          0          0
AAAAAAAAB1R      AAAAAAAAA01      AAAAAAAAA03      273.899    0.013      0          0          0          0
AAAAAAAAB1S      AAAAAAAAA04      AAAAAAAAA05      208.23     0.013      0          0          0          0
AAAAAAAAB1T      AAAAAAAAA08      AAAAAAAAA04      166.91     0.013      0          0          0          0
AAAAAAAAB1U      AAAAAAAAA07      AAAAAAAAA08      369.64     0.013      0          0          0          0
AAAAAAAAB1V      AAAAAAAAA0-      AAAAAAAAA06      191.64     0.013      0          0          0          0
AAAAAAAAB1W      AAAAAAAAA06      AAAAAAAAA07      209.77     0.013      0          0          0          0
AAAAAAAAB1X      AAAAAAAAA0G      AAAAAAAAA09      238.51     0.013      0          0.1        0          0
AAAAAAAAB1Y      AAAAAAAAA09      AAAAAAAAA0-      385.11     0.013      0          0          0          0

AAAAAAAAB1Z      AAAAAAAAAAAAB6   AAAAAAAAA1F      187        0.013      1.14       5.18       0          0
AAAAAAAAB10      AAAAAAAAA0A      AAAAAAAAA0_      402.451    0.013      0          0          0          0

AAAAAAAAAAC6     AAAAAAAAAAAAB7   AAAAAAAAAAAAB8   30         0.013      0          0          0          0

AAAAAAAAB11      AAAAAAAAAAAA8    AAAAAAAAAAAD2    39.987     0.013      0          0          0          0
AAAAAAAAB12      AAAAAAAAA1A      AAAAAAAABB_      33.732     0.013      0          1.94       0          0
AAAAAAAAB13      AAAAAAAAA1B      AAAAAAAAA1A      127.164    0.013      0          0          0          0
AAAAAAAAB14      AAAAAAAAAAAAAC_  AAAAAAAAA1B      38         0.013      0          0          0          0

AAAAAAAAB15      AAAAAAAAAQ4      AAAAAAAAD4       299.05     0.013      0          0.29       0          0

AAAAAAAAB16      AAAAAAAABB_      AAAAAAAAA1C      243.567    0.013      0          0.23       0          0

AAAAAAAAAAC7     AAAAAAAAAV0      AAAAAAAABB_      146.157    0.013      0          0          0          0

AAAAAAAAB17      AAAAAAAAA1C      AAAAAAAAA1D      758.08     0.013      0          0          0          0

AAAAAAAAB18      AAAAAAAAA1D      AAAAAAAAA1E      773.384    0.013      0          0          0          0

AAAAAAAAB19      AAAAAAAAA1E      AAAAAAAAA1F      738.44     0.013      0          0          0          0
AAAAAAAAB1-      AAAAAAAAA1F      AAAAAAAAA0N      770.822    0.013      0          0.49       0          0
AAAAAAAAB1_      AAAAAAAAA66      AAAAAAAAA1H      883.924    0.013      0          0          0          0
AAAAAAAAB2A      AAAAAAAAA1H      AAAAAAAAA1I      556.099    0.013      0          0          0          0

AAAAAAAAB2B      AAAAAAAAA1I      AAAAAAAAAAAAAAAAA0 562.396  0.013      0          0          0          0

AAAAAAAAB2C      AAAAAAAAAAAAAC4  AAAAAAAABE0      247.217    0.013      0          7          0          0

AAAAAAAAB2D      AAAAAAAAA1L      AAAAAAAAB8       124.942    0.013      0          1.66       0          0

AAAAAAAAAAC8     AAAAAAAAAAAA7    AAAAAAAAA1K      287.308    0.013      0          0          0          0
AAAAAAAAB2E      AAAAAAAAA1K      AAAAAAAAAAAD0    133.609    0.013      0          0          0          0
AAAAAAAAB2F      AAAAAAAAA1M      AAAAAAAAA1L      455.448    0.013      0          0          0          0
AAAAAAAAB2G      AAAAAAAAA1J      AAAAAAAAA1M      596.25     0.013      0          0          0          0
AAAAAAAAB2H      AAAAAAAAA1N      AAAAAAAAA1J      542.959    0.013      0          0          0          0
AAAAAAAAB2I      AAAAAAAAA1O      AAAAAAAAA1N      389.449    0.013      0          0          0          0

AAAAAAAAB2J      AAAAAAAAA1X      AAAAAAAAA1U      741.242    0.013      0          3.04       0          0

AAAAAAAAB2K      AAAAAAAAA1W      AAAAAAAAA6       76         0.013      0          1.5        0          0

AAAAAAAAB2L      AAAAAAAAAAAA1    AAAAAAAAAAAB9    204.477    0.013      0          0          0          0

AAAAAAAAB2M      AAAAAAAAAAAAAB3  AAAAAAAAA1Q      39.389     0.013      0          0          0          0

AAAAAAAAB2N      AAAAAAAAA1Q      AAAAAAAAA1R      254.712    0.013      0          0          0          0

AAAAAAAAB2O      AAAAAAAAA1R      AAAAAAAAA1S      98.34      0.013      0          7.61       0          0
AAAAAAAAB2P      AAAAAAAAA1U      AAAAAAAAA1S      534.98     0.013      0          0          0          0
AAAAAAAAAAC9     AAAAAAAAA1T      AAAAAAAAA1U      335.4      0.013      0          3.66       0          0
AAAAAAAAB2Q      AAAAAAAAA1V      AAAAAAAAA1T      118        0.013      0          0.07       0          0
AAAAAAAAB2R      AAAAAAAAA1P      AAAAAAAAAAAD4    363.704    0.013      0          0          0          0
AAAAAAAAB2S      AAAAAAAAA1Y      AAAAAAAAA1X      385.252    0.013      0          0.96       0          0
AAAAAAAAB2T      AAAAAAAAA1Z      AAAAAAAAA1Y      316.384    0.013      0          0.1        0          0
AAAAAAAAB2U      AAAAAAAAAX8      AAAAAAAAA1Z      308.938    0.013      0          0          0          0
AAAAAAAAB2V      AAAAAAAAA10      AAAAAAAAA11      365.5      0.013      0          0.02       0          0
AAAAAAAAB2W      AAAAAAAAA11      AAAAAAAAA1V      246.4      0.013      0          0.25       0          0
AAAAAAAAB2X      AAAAAAAAA12      AAAAAAAAA13      695.971    0.013      0          0          0          0
AAAAAAAAB2Y      AAAAAAAAA13      AAAAAAAABE0      532.68     0.013      0          8.5        0          0
AAAAAAAAB2Z      AAAAAAAAB1       AAAAAAAAA12      623.318    0.013      0          0          0          0
AAAAAAAAB20      AAAAAAAAAC1      AAAAAAAAA14      989.714    0.013      0          0          0          0
AAAAAAAAB21      AAAAAAAAA14      AAAAAAAABE2      920.487    0.013      0          0          0          0

AAAAAAAAB22      AAAAAAAAAAAA2    AAAAAAAAAAAB-    132.51     0.019      0          0          0          0

AAAAAAAAB23      AAAAAAAAA15      AAAAAAAAA7       91.177     0.013      0          1.1        0          0
AAAAAAAAB24      AAAAAAAAAAAAAB5  AAAAAAAABE2      859.806    0.013      0          3.61       0          0
AAAAAAAAB25      AAAAAAAAA1-      AAAAAAAAA1_      73.043     0.013      0          0          0          0
AAAAAAAAB26      AAAAAAAAA2A      AAAAAAAAA1-      85.429     0.013      0          5.13       0          0
AAAAAAAAB27      AAAAAAAAA2B      AAAAAAAAA2A      12.092     0.013      0          0          0          0
AAAAAAAAB28      AAAAAAAAA2C      AAAAAAAAA2B      88.862     0.013      0          0          0          0
AAAAAAAAB29      AAAAAAAAA2D      AAAAAAAAA2C      85.223     0.019      0          0          0          0
AAAAAAAAB2-      AAAAAAAAA2E      AAAAAAAAA2D      156.519    0.013      0          0          0          0
AAAAAAAAB2_      AAAAAAAAA2F      AAAAAAAAA2E      40.647     0.013      0          8.8        0          0
AAAAAAAAB3A      AAAAAAAAAB0      AAAAAAAAA2E      341.037    0.013      0          6.4        0          0
AAAAAAAAB3B      AAAAAAAAAA_      AAAAAAAAA19      191.486    0.013      1          2          0          0
AAAAAAAAB3C      AAAAAAAAA18      AAAAAAAAA17      45.726     0.013      0          0          0          0
AAAAAAAAB3D      AAAAAAAAA19      AAAAAAAAA18      159.799    0.013      0          0          0          0

AAAAAAAAB3E      AAAAAAAAA17      AAAAAAAAAAAD8    171.695    0.013      0          0          0          0
AAAAAAAAB3F      AAAAAAAAA16      AAAAAAAAAB0      168.2      0.013      0          0          0          0
AAAAAAAAB3G      AAAAAAAAA1_      AAAAAAAAA15      363.524    0.013      0          0          0          0

AAAAAAAAB3H      AAAAAAAAA2J      AAAAAAAAA1W      538.1      0.013      0.45       0.02       0          0
AAAAAAAAB3I      AAAAAAAAA1S      AAAAAAAAAAAAAB5  1127.55    0.013      0          0          0          0
AAAAAAAAB3J      AAAAAAAAA2N      AAAAAAAAA2M      115.319    0.013      0          1.45       0          0
AAAAAAAAB3K      AAAAAAAAA2G      AAAAAAAAA2N      279.676    0.013      0          5.2        0          0

AAAAAAAAB3L      AAAAAAAAA2I      AAAAAAAAA1W      492        0.013      0          1.41       0          0

AAAAAAAAB3M      AAAAAAAAA2H      AAAAAAAAA2I      13.5       0.013      0          0          0          0

AAAAAAAAB3N      AAAAAAAAA2J      AAAAAAAAA2H      17.2       0.013      0          0          0          0

AAAAAAAAB3O      AAAAAAAAA2K      AAAAAAAAA2J      451.619    0.013      0          0          0          0

AAAAAAAAB3P      AAAAAAAAA2L      AAAAAAAAA2K      158.099    0.013      0          0          0          0
AAAAAAAAB3Q      AAAAAAAAA2M      AAAAAAAAA2L      113.351    0.013      0          0          0          0
AAAAAAAAB3R      AAAAAAAAA2O      AAAAAAAAA2G      176.618    0.013      0          0          0          0

AAAAAAAAB3S      AAAAAAAAA2S      AAAAAAAAA2R      61.661     0.013      0          0          0          0
AAAAAAAAB3T      AAAAAAAAA2Q      AAAAAAAAA2T      158.152    0.013      0          0          0          0
AAAAAAAAB3U      AAAAAAAAA2R      AAAAAAAAA2Q      129.864    0.013      0          0          0          0
AAAAAAAAB3V      AAAAAAAAA2T      AAAAAAAAA2O      133.05     0.013      0          0          0          0

AAAAAAAAB3W      AAAAAAAAA2P      AAAAAAAAA2S      187.432    0.013      0          0          0          0
AAAAAAAAB3X      AAAAAAAAAL3      AAAAAAAAA2U      467.9      0.013      0          0          0          0
AAAAAAAAAAC-     AAAAAAAAA2Z      AAAAAAAAAAB2     467.293    0.013      0          0          0          0
AAAAAAAAAAC_     AAAAAAAAAAB2     AAAAAAAAA21      240.322    0.013      0          0          0          0
AAAAAAAAAAD0     AAAAAAAAA21      AAAAAAAAA5_      296.146    0.013      0          0          0          0
AAAAAAAAB3Y      AAAAAAAAA2Z      AAAAL3           181.136    0.013      0          0          0          0
AAAAAAAAAAD1     AAAAL3           AAAAAAAAA20      282.441    0.013      0          0          0          0
AAAAAAAAB3Z      AAAAAAAAA22      AAAAAAAAA2W      617.013    0.013      0          0          0          0
AAAAAAAAB30      AAAAAAAAA25      AAAAAAAAA22      422.416    0.013      0          0          0          0
AAAAAAAAB31      AAAAAAAAA2W      AAAAAAAAA2X      165.63     0.013      0          0          0          0
AAAAAAAAB32      AAAAAAAAA2X      AAAAAAAAA2Y      343.513    0.013      0          0          0          0
AAAAAAAAB33      AAAAAAAAA20      AAAAAAAAAAB4     216.23     0.013      0          0          0          0
AAAAAAAAB34      AAAAAAAAAAB4     AAAAAAAAA5_      313.523    0.013      0          0          0          0
AAAAAAAAB35      AAAAAAAAAK0      AAAAAAAAA2Z      226.8      0.013      0          0          0          0
AAAAAAAAB36      AAAAAAAAA2Y      AAAAAAAAA21      371.503    0.013      0          0          0          0
AAAAAAAAB37      AAAAAAAAA24      AAAAAAAAA23      317.519    0.013      0          0          0          0
AAAAAAAAB38      AAAAAAAAA2W      AAAAAAAAA24      475.917    0.013      0          0          0          0
AAAAAAAAB39      AAAAAAAAA26      AAAAAAAAA25      312.919    0.013      0          0          0          0
AAAAAAAAB3-      AAAAAAAAAJ_      AAAAL3           266.896    0.014      0          0          0          0
AAAAAAAAB3_      AAAAAAAAA23      AAAAAAAAA5-      542.758    0.013      0          0          0          0
AAAAAAAAB4A      AAAAAAAAA28      AAAAAAAAA5_      445.337    0.013      0          0          0          0
AAAAAAAAB4B      AAAAAAAAA3A      AAAAAAAAA2-      276.827    0.013      0          0          0          0
AAAAAAAAB4C      AAAAAAAAA2-      AAAAAAAAA3E      1154.669   0.013      0          0          0          0

AAAAAAAAAAD2     AAAAAAAAA3E      AAAAAAAAA3H      335        0.013      0          0          0          0
AAAAAAAAB4D      AAAAAAAAA3F      AAAAAAAAA3E      140.778    0.013      0          0          0          0
AAAAAAAAB4E      AAAAAAAABB7      AAAAAAAAA3F      129.951    0.013      0          0          0          0
AAAAAAAAB4F      AAAAAAAAA3B      AAAAAAAAA3A      114.607    0.013      0          0          0          0
AAAAAAAAB4G      AAAAAAAAA3C      AAAAAAAAA3B      251.432    0.019      0          0          0          0
AAAAAAAAB4H      AAAAAAAAA3K      AAAAAAAAA3A      205.083    0.013      0          0          0          0
AAAAAAAAB4I      AAAAAAAAA3L      AAAAAAAAA2_      420.158    0.013      0          0          0          0
AAAAAAAAB4J      AAAAAAAAA3M      AAAAAAAAA3K      379.7      0.013      0          0          0          0
AAAAAAAAB4K      AAAAAAAAA2_      AAAAAAAAA3D      552.608    0.013      0          0          0          0
AAAAAAAAAAD3     AAAAAAAAA3E      AAAAAAAAA3I      496.539    0.013      3.74       0          0          0
AAAAAAAAB4L      AAAAAAAAA3D      AAAAAAAAA3E      463.857    0.013      0          0          0          0
AAAAAAAAB4M      AAAAAAAAA3H      AAAAAAAAAJ9      709.995    0.013      0          0          0          0
AAAAAAAAB4N      AAAAAAAAA3I      AAAAAAAAA3J      305.735    0.013      0          0          0          0
AAAAAAAAB4O      AAAAAAAAA3J      AAAAAAAAAJ9      249.188    0.013      0          0          0          0
AAAAAAAAB4P      AAAAAAAAAI8      AAAAAAAAA3J      61.214     0.013      0          4          0          0
AAAAAAAAB4Q      AAAAAAAAA4T      AAAAAAAAA3L      656.821    0.013      0          0          0          0
AAAAAAAAB4R      AAAAAAAAA3X      AAAAAAAAAM4      232.976    0.013      0          0          0          0
AAAAAAAAB4S      AAAAAAAAA3O      AAAAAAAAA63      773.56     0.013      0          0          0          0
AAAAAAAAB4T      AAAAAAAAA3T      AAAAAAAAA3S      156.81     0.013      0          0          0          0
AAAAAAAAB4U      AAAAAAAAA3S      AAAAAAAAA3R      82.681     0.013      0          0          0          0
AAAAAAAAB4V      AAAAAAAAA3R      AAAAAAAAA3Q      56.74      0.013      0          0          0          0
AAAAAAAAB4W      AAAAAAAAA3Q      AAAAAAAAA3W      202.638    0.013      0          0          0          0
AAAAAAAAB4X      AAAAAAAAA3W      AAAAAAAAA3V      93.338     0.013      0          0          0          0
AAAAAAAAB4Y      AAAAAAAAA3V      AAAAAAAAA3U      343.738    0.013      0          0          0          0
AAAAAAAAB4Z      AAAAAAAAAAB8     AAAAAAAAAAB7     144.11     0.013      0          0          0          0
AAAAAAAAB40      AAAAAAAAA30      AAAAAAAAA3Z      32.935     0.013      0          0          0          0
AAAAAAAAB41      AAAAAAAAA4A      AAAAAAAAB7       315.838    0.013      0          3.97       0          0
AAAAAAAAB42      AAAAAAAAAAAAB3   AAAAAAAAA31      32.856     0.013      0          0          0          0
AAAAAAAAB43      AAAAAAAAB7       AAAAAAAAC5       443.066    0.013      3.97       9.1        0          0
AAAAAAAAB44      AAAAAAAAA31      AAAAAAAAA32      294.549    0.013      0          0          0          0
AAAAAAAAB45      AAAAAAAAA32      AAAAAAAAA33      294.96     0.013      0          0          0          0
AAAAAAAAB46      AAAAAAAAA33      AAAAAAAAA34      175.104    0.013      0.05       0          0          0
AAAAAAAAB47      AAAAAAAAA34      AAAAAAAAA35      180.506    0.013      0.04       0          0          0
AAAAAAAAB48      AAAAAAAAA35      AAAAAAAAA36      483.866    0.013      0.06       0.06       0          0
AAAAAAAAB49      AAAAAAAAA36      AAAAAAAAA37      169.379    0.013      0          0.03       0          0
AAAAAAAAB4-      AAAAAAAAA37      AAAAAAAAA38      285.266    0.013      0          0.04       0          0
AAAAAAAAB4_      AAAAAAAAA38      AAAAAAAAA39      166.946    0.013      0          0.03       0          0
AAAAAAAAB5A      AAAAAAAAA39      AAAAAAAAA3-      209.055    0.013      0          0.04       0          0
AAAAAAAAB5B      AAAAAAAAA3-      AAAAAAAAA3_      185.364    0.013      0          0.05       0          0
AAAAAAAAB5C      AAAAAAAAA3_      AAAAAAAAA-6      106.198    0.013      0          0.15       0          0
AAAAAAAAB5D      AAAAAAAAA4E      AAAAAAAAA4D      253.62     0.013      0          0          0          0
AAAAAAAAB5E      AAAAAAAAA4B      AAAAAAAAA4A      648        0.013      0          0          0          0
AAAAAAAAB5F      AAAAAAAAA4D      AAAAAAAAA4C      226.38     0.013      0          0          0          0
AAAAAAAAB5G      AAAAAAAAA4F      AAAAAAAAA4E      145        0.013      0          0          0          0
AAAAAAAAB5H      AAAAAAAAA4G      AAAAAAAAAAB3     1039       0.013      0.01       0          0          0

AAAAAAAAB5I      AAAAAAAA1        AAAAAAAAA5Q      3068.066   0.013      0          0          0          0
AAAAAAAAB5J      AAAAAAAAA-7      AAAAAAAAA-6      68.457     0.013      0          0.69       0          0
AAAAAAAAB5K      AAAAAAAAA4O      AAAAAAAAA4N      10.28      0.013      8.49       5.35       0          0
AAAAAAAAB5L      AAAAAAAAA4H      AAAAAAAAA4N      115.251    0.013      0          5.35       0          0
AAAAAAAAB5M      AAAAAAAAA4I      AAAAAAAAA5F      474.922    0.013      0          0.62       0          0
AAAAAAAAB5N      AAAAAAAAA4J      AAAAAAAAA5N      338.68     0.013      0          0          0          0
AAAAAAAAB5O      AAAAAAAAA4L      AAAAAAAAA4O      469.105    0.014      0          0          0          0
AAAAAAAAB5P      AAAAAAAAA4K      AAAAAAAAA4N      468.949    0.013      0          0          0          0
AAAAAAAAB5Q      AAAAAAAAA5P      AAAAAAAAA4K      641.688    0.013      0          0          0          0
AAAAAAAAB5R      AAAAAAAAA4M      AAAAAAAAA4L      300.961    0.014      0          0          0          0
AAAAAAAAB5S      AAAAAAAAA5O      AAAAAAAAA4M      345.032    0.014      0          0          0          0
AAAAAAAAB5T      AAAAAAAAA4N      AAAAAAAAA49      487.638    0.013      0          0          0          0
AAAAAAAAB5U      AAAAAAAAA4P      AAAAAAAAA43      297.978    0.013      0          0.4        0          0
AAAAAAAAB5V      AAAAAAAAA4_      AAAAAAAAA48      356.116    0.013      0          0          0          0
AAAAAAAAB5W      AAAAAAAAA49      AAAAAAAAA4_      184.77     0.013      0          0          0          0
AAAAAAAAB5X      AAAAAAAAA4S      AAAAAAAAA3M      400.322    0.013      0          0          0          0
AAAAAAAAB5Y      AAAAAAAAA4U      AAAAAAAAA4S      149.541    0.013      0          0          0          0
AAAAAAAAB5Z      AAAAAAAAA4V      AAAAAAAAA4T      358.945    0.013      0          0          0          0
AAAAAAAAB50      AAAAAAAAA4W      AAAAAAAAA4U      255.423    0.013      0          0          0          0
AAAAAAAAB51      AAAAAAAAA4Q      AAAAAAAAA4V      256.952    0.013      0          0          0          0
AAAAAAAAB52      AAAAAAAAA4Q      AAAAAAAAA4W      281.421    0.013      0          0          0          0
AAAAAAAAB53      AAAAAAAAA4Y      AAAAAAAAA4Q      30.983     0.013      0          0          0          0
AAAAAAAAB54      AAAAAAAAA4Z      AAAAAAAAA4Q      112.153    0.013      0          0          0          0
AAAAAAAAB55      AAAAAAAAA42      AAAAAAAAA4Q      299.081    0.013      0          0          0          0
AAAAAAAAB56      AAAAAAAAA4V      AAAAAAAAA4W      26.793     0.013      6.63       0          0          0
AAAAAAAAB57      AAAAAAAAA4X      AAAAAAAAA4Y      170.062    0.013      0          0          0          0
AAAAAAAAB58      AAAAAAAAA40      AAAAAAAAA4Z      157.306    0.013      0          0          0          0
AAAAAAAAB59      AAAAAAAAA4R      AAAAAAAAA4Q      983.789    0.013      0          2.88       0          0
AAAAAAAAB5-      AAAAAAAAA47      AAAAAAAAA48      512.369    0.013      0          3.69       0          0
AAAAAAAAB5_      AAAAAAAAA47      AAAAAAAAA40      385.09     0.013      0          0          0          0
AAAAAAAAB6A      AAAAAAAAA41      AAAAAAAAA42      411.226    0.013      0          0          0          0
AAAAAAAAB6B      AAAAAAAAA48      AAAAAAAAA41      401.495    0.013      0          0          0          0
AAAAAAAAB6C      AAAAAAAAA4-      AAAAAAAAA49      32.91      0.013      0          0          0          0
AAAAAAAAB6D      AAAAAAAAA49      AAAAAAAAA44      275.385    0.013      0.12       0          0          0
AAAAAAAAB6E      AAAAAAAAA43      AAAAAAAAA49      364.686    0.013      0          0.38       0          0
AAAAAAAAB6F      AAAAAAAAA5A      AAAAAAAAA4H      132.617    0.013      0.1        0          0          0
AAAAAAAAB6G      AAAAAAAAA4O      AAAAAAAAA4-      464.241    0.013      0          0          0          0
AAAAAAAAB6H      AAAAAAAAA46      AAAAAAAAA45      52.209     0.013      0          0          0          0
AAAAAAAAB6I      AAAAAAAAA44      AAAAAAAAA46      329.497    0.013      0          0          0          0
AAAAAAAAB6J      AAAAAAAAA45      AAAAAAAAA47      378.293    0.013      0          0          0          0
AAAAAAAAB6K      AAAAAAAAA5B      AAAAAAAAA4_      379.269    0.013      0          6.98       0          0
AAAAAAAAB6L      AAAAAAAAA5A      AAAAAAAAA5B      236.134    0.013      0          0.25       0          0
AAAAAAAAB6M      AAAAAAAAA5H      AAAAAAAAA5G      432.025    0.013      0          0          0          0
AAAAAAAAB6N      AAAAAAAAA5I      AAAAAAAAA5E      28.225     0.013      0          0          0          0
AAAAAAAAB6O      AAAAAAAAA5D      AAAAAAAAA5C      386.374    0.013      0          0.62       0          0
AAAAAAAAB6P      AAAAAAAAA5E      AAAAAAAAA5D      230.902    0.013      0          0          0          0
AAAAAAAAB6Q      AAAAAAAAA5F      AAAAAAAAA5E      53.109     0.013      0          0          0          0
AAAAAAAAB6R      AAAAAAAAA5J      AAAAAAAAA5K      53.981     0.013      0          1.25       0          0
AAAAAAAAB6S      AAAAAAAAA5L      AAAAAAAAA5K      71.969     0.013      0          1.25       0          0
AAAAAAAAB6T      AAAAAAAAA-5      AAAAAAAAA5O      641.687    0.014      0          0          0          0
AAAAAAAAB6U      AAAAAAAAA5K      AAAAAAAAA5P      373.989    0.013      0          0          0          0
AAAAAAAAB6V      AAAAAAAAA5M      AAAAAAAAA5L      29.769     0.013      0          0          0          0
AAAAAAAAB6W      AAAAAAAAA5N      AAAAAAAAA5M      35.492     0.013      0          0          0          0
AAAAAAAAB6X      AAAAAAAAA5T      AAAAAAAAA5W      436.818    0.013      0          0          0          0
AAAAAAAAB6Y      AAAAAAAAA5Q      AAAAAAAAA5R      224.69     0.013      1.73       0          0          0
AAAAAAAAB6Z      AAAAAAAAA5R      AAAAAAAAA5S      169.884    0.013      0          1          0          0
AAAAAAAAB60      AAAAAAAAA5S      AAAAAAAAA5T      188.857    0.013      0          0          0          0

AAAAAAAAB61      AAAAAAAAA5U      AAAAAAAAA5V      205.334    0.013      0          0          0          0

AAAAAAAAB62      AAAAAAAAA5W      AAAAAAAAA5U      172.122    0.013      0          0          0          0
AAAAAAAAB63      AAAAAAAAA5X      AAAAAAAAA5Y      285.581    0.013      0          0          0          0
AAAAAAAAB64      AAAAAAAAA5V      AAAAAAAAA5X      232.471    0.013      0          0          0          0
AAAAAAAAB65      AAAAAAAAA50      AAAAAAAAA51      487.473    0.013      0          0          0          0
AAAAAAAAB66      AAAAAAAAA52      AAAAAAAAA53      422.211    0.013      0          0          0          0
AAAAAAAAB67      AAAAAAAAA5Z      AAAAAAAAA50      364.617    0.013      0          0          0          0
AAAAAAAAB68      AAAAAAAAA5Y      AAAAAAAAA5Z      291.892    0.013      0          1.99       0          0
AAAAAAAAB69      AAAAAAAAA51      AAAAAAAAA52      491.954    0.013      0          0          0          0
AAAAAAAAB6-      AAAAAAAAA53      AAAAAAAAA54      424.46     0.013      0          0          0          0
AAAAAAAAB6_      AAAAAAAAA54      AAAAAAAAA55      442.354    0.013      0          0          0          0
AAAAAAAAB7A      AAAAAAAAA56      AAAAAAAAA57      483.064    0.013      0          0          0          0
AAAAAAAAB7B      AAAAAAAAA55      AAAAAAAAA56      380.843    0.013      0          0          0          0
AAAAAAAAB7C      AAAAAAAAA57      AAAAAAAAA4I      504.176    0.013      0          0          0          0
AAAAAAAAB7D      AAAAAAAAA5-      AAAAAAAAA58      973        0.013      0          0          0          0

AAAAAAAAB7E      AAAAAAAAA59      AAAAAAAAA6A      230.235    0.013      0          5.77       0          0
AAAAAAAAB7F      AAAAAAAAA6A      AAAAAAAAA6X      756.25     0.013      0          0          0          0

AAAAAAAAB7G      AAAAAAAAA6B      AAAAAAAAAAAA0    159        0.013      0          3.52       0          0

AAAAAAAAB7H      AAAAAAAAA6C      AAAAAAAAAAAC4    156.395    0.013      0          0          0          0
AAAAAAAAB7I      AAAAL1           AAAAAAAAA6C      26.572     0.013      0          0          0          0

AAAAAAAAB7J      AAAAAAAABA4      AAAAAAAAA6D      272.396    0.013      0          0          0          0

AAAAAAAAB7K      AAAAAAAAA6I      AAAAL7           237.852    0.013      0          1.53       0          0

AAAAAAAAB7L      AAAAAAAAA6H      AAAAAAAAA6I      308.907    0.013      0          0.12       0          0

AAAAAAAAB7M      AAAAAAAAA6G      AAAAAAAAA6H      309.972    0.013      0          0          0          0

AAAAAAAAB7N      AAAAAAAAA6F      AAAAAAAAA6G      311.486    0.013      0          0          0          0

AAAAAAAAB7O      AAAAAAAAA6E      AAAAAAAAA6F      327.901    0.013      0          0          0          0

AAAAAAAAB7P      AAAAAAAAA6J      AAAAAAAAA6E      225.416    0.013      0          0          0          0

AAAAAAAAB7Q      AAAAAAAAA6Q      AAAAAAAAA6J      386.051    0.013      0          0.09       0          0

AAAAAAAAB7R      AAAAAAAAA6R      AAAAAAAAA6Q      351.106    0.013      0          0          0          0

AAAAAAAAB7S      AAAAAAAAA6S      AAAAAAAAA6R      347.444    0.013      0          0.41       0          0

AAAAAAAAB7T      AAAAAAAAA6T      AAAAAAAAA6S      352.102    0.013      0          0          0          0

AAAAAAAAB7U      AAAAAAAAA6U      AAAAAAAAA6T      346.483    0.013      0          0          0          0

AAAAAAAAB7V      AAAAAAAAA6V      AAAAAAAAA6U      290.031    0.013      0          0.16       0          0

AAAAAAAAB7W      AAAAAAAAA6D      AAAAAAAAA6K      158.283    0.013      0          14.75      0          0

AAAAAAAAB7X      AAAAAAAAA6W      AAAAAAAAA6V      257.981    0.013      0          0          0          0

AAAAAAAAB7Y      AAAAAAAAA6P      AAAAAAAAA6W      306.414    0.013      0          0.21       0          0

AAAAAAAAB7Z      AAAAAAAAA6O      AAAAAAAAA6P      141.176    0.013      0          0.18       0          0

AAAAAAAAB70      AAAAAAAAA6N      AAAAAAAAA6O      272.734    0.013      0          0          0          0

AAAAAAAAB71      AAAAAAAAA6M      AAAAAAAAA6N      334.106    0.013      0          0.14       0          0

AAAAAAAAB72      AAAAAAAAA6L      AAAAAAAAA6M      334.554    0.013      0          0          0          0

AAAAAAAAB73      AAAAAAAAA6K      AAAAAAAAA6L      226.149    0.013      0          1.43       0          0
AAAAAAAAA6Y      AAAAAAAAA61      AAAAAAAAAAAB3    258.018    0.013      10.8       0          0          0
AAAAAAAAB74      AAAAAAAAAAAB2    AAAAAAAAA60      329.569    0.013      0          0          0          0

AAAAAAAAB75      AAAAAAAAAAAB4    AAAAL2           58.498     0.013      0          2.3        0          0
AAAAAAAAB76      AAAAAAAAA60      AAAAAAAAA_E      398.384    0.013      0          0          0          0
AAAAAAAAB77      AAAAAAAAAAB5     AAAAAAAAA3       219.2      0.013      0          0          0          0

AAAAAAAAAAAE1    AAAAAAAAA3       AAAAAAAAA62      46.35      0.013      0          0          0          0

AAAAAAAAB78      AAAAAAAAAJ6      AAAAAAAAAJ4      690.707    0.013      0          0          0          0
AAAAAAAAB79      AAAAAAAAA58      AAAAAAAAAAAA0    295.57     0.013      0          0          0          0
AAAAAAAAB7-      AAAAAAAAA6Z      AAAAAAAAA_F      557.3      0.013      0          0          0          0
AAAAAAAAAAD4     AAAAAAAAA_F      AAAAAAAAA3N      648.76     0.013      0          0          0          0
AAAAAAAAB7_      AAAAAAAAA7B      AAAAAAAAA65      875.318    0.013      0          0          0          0
AAAAAAAAB8A      AAAAAAAAA65      AAAAAAAAA64      895.294    0.013      0          0.09       0          0
AAAAAAAAB8B      AAAAAAAAA67      AAAAAAAAA66      818.037    0.013      0          0          0          0
AAAAAAAAB8C      AAAAAAAAA68      AAAAAAAAA67      793.08     0.013      0          0          0          0
AAAAAAAAB8D      AAAAAAAAA64      AAAAAAAAA68      960.561    0.013      0          0          0          0
AAAAAAAAB8E      AAAAAAAAA69      AAAAAAAAA7A      903.131    0.013      0          0          0          0
AAAAAAAAB8F      AAAAAAAAA6-      AAAAAAAAA69      1244.062   0.013      0          0          0          0
AAAAAAAAB8G      AAAAAAAAA6_      AAAAAAAAA6-      546.942    0.013      0          0          0          0
AAAAAAAAB8H      AAAAAAAAA7F      AAAAAAAAA6_      951.759    0.013      0          0          0          0
AAAAAAAAB8I      AAAAAAAAA7A      AAAAAAAAA7B      798.481    0.013      0          0.1        0          0

AAAAAAAAB8J      AAAAL7           AAAAAAAAA7C      734.432    0.013      0          0          0          0

AAAAAAAAB8K      AAAAL7           AAAAAAAAA7C      734.432    0.014      0          0          0          0

AAAAAAAAB8L      AAAAL7           AAAAAAAAA7C      734.432    0.013      0          0          0          0
AAAAAAAAB8M      AAAAAAAAA7C      AAAAAAAAA7B      71.673     0.013      0          1.1        0          0
AAAAAAAAB8N      AAAAAAAAA7D      AAAAAAAAA7E      78.325     0.013      0          0          0          0

AAAAAAAAB8O      AAAAAAAAA7G      AAAAAAAAA7F      981.916    0.013      0          0          0          0

AAAAAAAAB8P      AAAAAAAAA7H      AAAAAAAAA7G      928.839    0.013      0          0          0          0

AAAAAAAAB8Q      AAAAAAAAA-Y      AAAAAAAAA7F      627.975    0.013      0          8.33       0          0
AAAAAAAAB8R      AAAAAAAAA7K      AAAAAAAAA78      621.136    0.013      0          0          0          0
AAAAAAAAB8S      AAAAAAAAA7V      AAAAAAAAA7I      413.351    0.013      0          0          0          0
AAAAAAAAB8T      AAAAAAAAA7J      AAAAAAAAA7K      277.711    0.013      0          0          0          0
AAAAAAAAB8U      AAAAAAAAA7L      AAAAAAAAA7K      363.039    0.013      0          1.2        0          0
AAAAAAAAB8V      AAAAAAAAA7Y      AAAAAAAAA7M      70.914     0.013      0          0.14       0          0
AAAAAAAAB8W      AAAAAAAAA7M      AAAAAAAAA7N      328.21     0.013      0          0.5        0          0
AAAAAAAAB8X      AAAAAAAAA7N      AAAAAAAAA7O      409.304    0.013      0          0          0          0
AAAAAAAAB8Y      AAAAAAAAA7P      AAAAAAAAA7T      51.604     0.013      0          0          0          0
AAAAAAAAB8Z      AAAAAAAAA7O      AAAAAAAAA7P      366.218    0.013      0          0.07       0          0
AAAAAAAAB80      AAAAAAAAA7U      AAAAAAAAA7V      349.492    0.013      0          0          0          0
AAAAAAAAB81      AAAAAAAAA7T      AAAAAAAAA7U      52.162     0.013      0          0.08       0          0
AAAAAAAAB82      AAAAAAAAA7X      AAAAAAAAA7W      300.546    0.013      0          0          0          0
AAAAAAAAB83      AAAAAAAAA71      AAAAAAAAA7Q      22.925     0.013      0          0.3        0          0
AAAAAAAAB84      AAAAAAAAA70      AAAAAAAAA7Z      18.603     0.013      0          0          0          0
AAAAAAAAB85      AAAAAAAAA7R      AAAAAAAAA70      30.988     0.013      0          0          0          0
AAAAAAAAB86      AAAAAAAAA7Q      AAAAAAAAA7X      282.069    0.013      0          0          0          0

AAAAAAAAB87      AAAAAAAAA7Y      AAAAAAAAA7Q      314.538    0.013      0          0          0          0
AAAAAAAAB88      AAAAAAAAA7Z      AAAAAAAAA7Y      109.782    0.013      0          0          0          0
AAAAAAAAB89      AAAAAAAAA72      AAAAAAAAA7R      231.453    0.013      0          0          0          0
AAAAAAAAB8-      AAAAAAAAA73      AAAAAAAAA72      45.298     0.013      0          0          0          0
AAAAAAAAB8_      AAAAAAAAA7S      AAAAAAAAA76      227.99     0.013      0          0          0          0
AAAAAAAAB9A      AAAAAAAAA74      AAAAAAAAA73      236.51     0.013      0          0          0          0
AAAAAAAAB9B      AAAAAAAAA75      AAAAAAAAA74      36.125     0.013      0          0          0          0
AAAAAAAAB9C      AAAAAAAAA76      AAAAAAAAA75      268.853    0.013      0          0          0          0
AAAAAAAAB9D      AAAAAAAAA78      AAAAAAAAA77      374.108    0.013      0          0          0          0
AAAAAAAAB9E      AAAAAAAAA7I      AAAAAAAAA78      339.18     0.013      0          0          0          0
AAAAAAAAB9F      AAAAAAAAA8H      AAAAAAAAA79      394.388    0.013      0          0          0          0
AAAAAAAAB9G      AAAAAAAAA8C      AAAAAAAAA8B      282.348    0.013      0          3          0          0
AAAAAAAAB9H      AAAAAAAAA8B      AAAAAAAAA79      26.419     0.013      0          0          0          0
AAAAAAAAB9I      AAAAAAAAA7-      AAAAAAAAA7_      753.729    0.013      0          0          0          0
AAAAAAAAB9J      AAAAAAAAA79      AAAAAAAAA8A      249.025    0.013      0          0          0          0
AAAAAAAAB9K      AAAAAAAAA8A      AAAAAAAAA7-      217.994    0.013      0          0          0          0
AAAAAAAAB9L      AAAAAAAAA8D      AAAAAAAAA8C      355.236    0.013      0          0          0          0
AAAAAAAAB9M      AAAAAAAAA8G      AAAAAAAAA8D      30.149     0.013      0.56       0          0          0
AAAAAAAAB9N      AAAAAAAAA8E      AAAAAAAAA8G      400.395    0.013      0          0.56       0          0
AAAAAAAAB9O      AAAAAAAAA77      AAAAAAAAA8F      310.289    0.013      0          0          0          0
AAAAAAAAB9P      AAAAAAAAA8F      AAAAAAAAA8E      397.161    0.013      0          0          0          0
AAAAAAAAB9Q      AAAAAAAAA8J      AAAAAAAAA8I      20.826     0.013      0          0.1        0          0
AAAAAAAAB9R      AAAAAAAAA-P      AAAAAAAAA8M      799.652    0.013      0          0.08       0          0

AAAAAAAAB9S      AAAAAAAAA8K      AAAAAAAAAAAAAC2  896.903    0.013      0          0          0          0
AAAAAAAAB9T      AAAAAAAAA8L      AAAAAAAAA8K      958.973    0.013      0          0          0          0
AAAAAAAAB9U      AAAAAAAAA8M      AAAAAAAAA8L      624.26     0.013      0          0          0          0
AAAAAAAAB9V      AAAAAAAAA8N      AAAAAAAAA8M      137.03     0.013      0          9.71       0          0
AAAAAAAAB9W      AAAAAAAAA8O      AAAAAAAAA8N      44.189     0.013      0          0          0          0
AAAAAAAAB9X      AAAAAAAAA8Q      AAAAAAAAA8Z      126.87     0.013      0          0          0          0
AAAAAAAAB9Y      AAAAAAAAA8U      AAAAAAAAA86      459.682    0.013      0          0          0          0
AAAAAAAAB9Z      AAAAAAAAA8T      AAAAAAAAA8U      459.754    0.013      0          0          0          0

AAAAAAAAB90      AAAAAAAAAAAAAC1  AAAAAAAAA8T      453.697    0.013      0          0          0          0

AAAAAAAAB91      AAAAAAAAA8R      AAAAAAAAAAAAAC1  471.573    0.013      0          0          0          0
AAAAAAAAB92      AAAAAAAAA8S      AAAAAAAAA8R      502.256    0.013      0          0          0          0
AAAAAAAAB93      AAAAAAAAA8W      AAAAAAAAA8V      66.714     0.013      0          2          0          0
AAAAAAAAB94      AAAAAAAAA8X      AAAAAAAAA8W      117.32     0.013      0          0.83       0          0
AAAAAAAAB95      AAAAAAAAA8Y      AAAAAAAAA8X      129.29     0.013      0          0          0          0
AAAAAAAAB96      AAAAAAAAA8Z      AAAAAAAAA8Y      148.09     0.013      0          0          0          0
AAAAAAAAB97      AAAAAAAAA81      AAAAAAAAA80      256.742    0.013      0          0          0          0
AAAAAAAAB98      AAAAAAAABD_      AAAAAAAABD-      376.55     0.013      0          0          0          0
AAAAAAAAB99      AAAAAAAAA82      AAAAAAAABD_      215.53     0.013      0          0          0          0
AAAAAAAAB9-      AAAAAAAABD-      AAAAAAAAA83      205.6      0.013      0          0          0          0

AAAAAAAAB9_      AAAAAAAAA_I      AAAAAAAAAAAAAB_  351.442    0.013      0          0          0          0

AAAAAAAAB-A      AAAAAAAAAAAAAC0  AAAAAAAAA84      334.542    0.013      0          0          0          0

AAAAAAAAB-B      AAAAAAAAA85      AAAAAAAAAAAAAC0  433.996    0.013      0          0          0          0
AAAAAAAAB-C      AAAAAAAAA86      AAAAAAAAA85      449.236    0.013      0          0          0          0
AAAAAAAAB-D      AAAAAAAAA89      AAAAAAAAA88      725.48     0.013      0          0          0          0
AAAAAAAAB-E      AAAAAAAAA8-      AAAAAAAAA89      777.361    0.013      0          0          0          0
AAAAAAAAB-F      AAAAAAAAA87      AAAAAAAAA8-      798.584    0.013      0          0          0          0
AAAAAAAAB-G      AAAAAAAAA7W      AAAAAAAAA8_      296.441    0.013      0          0          0          0

AAAAAAAAB-H      AAAAAAAAA9A      AAAAAAAAA9B      90.524     0.013      0          0          0          0
AAAAAAAAB-I      AAAAAAAAA8_      AAAAAAAAA9A      296.251    0.013      0          0          0          0
AAAAAAAAB-J      AAAAAAAAA9G      AAAAAAAAA91      891.5      0.013      0          0          0          0
AAAAAAAAB-K      AAAAAAAAA9K      AAAAAAAAA9J      288.448    0.013      0          0          0          0
AAAAAAAAB-L      AAAAAAAAA7_      AAAAAAAAA1O      284.665    0.013      0          0          0          0
AAAAAAAAB-M      AAAAAAAAA9J      AAAAAAAAA9E      295.374    0.013      0          0          0          0
AAAAAAAAB-N      AAAAAAAAA9I      AAAAAAAAA9K      304.177    0.013      0          0          0          0
AAAAAAAAB-O      AAAAAAAAA9B      AAAAAAAAA9H      301.076    0.013      0          0          0          0

AAAAAAAAB-P      AAAAAAAAA9H      AAAAAAAAA9I      289.088    0.013      0          0          0          0
AAAAAAAAB-Q      AAAAAAAAAAB6     AAAAAAAAA9E      381.43     0.013      0          0.9        0          0
AAAAAAAAB-R      AAAAAAAAA9E      AAAAAAAAA9C      267.653    0.013      0          0          0          0

AAAAAAAAB-S      AAAAAAAAA9C      AAAAAAAAA9D      42.791     0.013      0          0          0          0

AAAAAAAAB-T      AAAAAAAAA9F      AAAAAAAAA9_      422.25     0.013      0          0          0          0

AAAAAAAAB-U      AAAAAAAAA9D      AAAAAAAAA9F      343.551    0.013      0          0          0          0
AAAAAAAAB-V      AAAAAAAAA9O      AAAAAAAAA-H      361        0.013      0          0          0          0
AAAAAAAAB-W      AAAAAAAAA9L      AAAAAAAAA96      475.503    0.013      0          0          0          0
AAAAAAAAB-X      AAAAAAAAA9M      AAAAAAAAA9L      508.913    0.013      0          0          0          0
AAAAAAAAB-Y      AAAAAAAAA9N      AAAAAAAAA9M      519.797    0.013      0          0          0          0
AAAAAAAAB-Z      AAAAAAAAA88      AAAAAAAAA9N      1870.177   0.013      0          0          0          0
AAAAAAAAB-0      AAAAAAAAA9P      AAAAAAAAA9O      203.87     0.013      0          0          0          0
AAAAAAAAB-1      AAAAAAAAA9U      AAAAAAAAA9P      46.96      0.013      0          0.05       0          0
AAAAAAAAB-2      AAAAAAAAA9Q      AAAAAAAAA9U      100.9      0.013      0          0          0          0
AAAAAAAAB-3      AAAAAAAAA9V      AAAAAAAAA9Q      103.9      0.013      0          0          0          0
AAAAAAAAB-4      AAAAAAAAA9S      AAAAAAAAA9R      101.68     0.013      0          0          0          0
AAAAAAAAB-5      AAAAAAAAA9R      AAAAAAAAA9V      184.38     0.013      0          0          0          0
AAAAAAAAB-6      AAAAAAAAA9X      AAAAAAAAA9T      135.01     0.013      0          0          0          0
AAAAAAAAB-7      AAAAAAAAA9W      AAAAAAAAA9Z      360.67     0.013      0          0          0          0
AAAAAAAAB-8      AAAAAAAAA9Z      AAAAAAAAA9Y      39.83      0.013      0          0          0          0
AAAAAAAAB-9      AAAAAAAAA9Y      AAAAAAAAA9X      227.83     0.013      0          0          0          0
AAAAAAAAB--      AAAAAAAAAAAAAB-  AAAAAAAAA93      491.206    0.013      0          0.82       0          0
AAAAAAAAB-_      AAAAAAAAA98      AAAAAAAAA99      100.013    0.013      0          0          0          0
AAAAAAAAB_A      AAAAAAAAA94      AAAAAAAAA92      624.592    0.013      0          0          0          0
AAAAAAAAB_B      AAAAAAAAA90      AAAAAAAAB1       36.744     0.013      0          8          0          0
AAAAAAAAB_C      AAAAAAAAA93      AAAAAAAAB1       559.9      0.013      0          0          0          0

AAAAAAAAB_D      AAAAAAAAA-B      AAAAAAAAB2       318.054    0.013      0          4          0          0
AAAAAAAAB_E      AAAAAAAAA99      AAAAAAAAA93      169.105    0.013      0          0.32       0          0
AAAAAAAAB_F      AAAAAAAAA95      AAAAAAAAA94      142.663    0.013      0          0          0          0
AAAAAAAAB_G      AAAAAAAAA96      AAAAAAAAA95      669.089    0.013      0          0          0          0
AAAAAAAAB_H      AAAAAAAAA97      AAAAAAAAA98      204.627    0.013      0          0          0          0

AAAAAAAAB_I      AAAAAAAAA-F      AAAAL4           351.586    0.013      0          0          0          0
AAAAAAAAB_J      AAAAAAAAA9-      AAAAAAAAA-E      109.462    0.013      0          0          0          0
AAAAAAAAB_K      AAAAAAAAA-H      AAAAAAAAA9-      357.333    0.013      0          0          0          0
AAAAAAAAB_L      AAAAAAAAA-D      AAAAAAAAA-G      49.831     0.013      0          0          0          0
AAAAAAAAB_M      AAAAAAAAA-E      AAAAAAAAA-C      48.966     0.013      0          0          0          0

AAAAAAAAB_N      AAAAAAAAA9_      AAAAAAAAA-A      266.185    0.013      0          0          0          0

AAAAAAAAB_O      AAAAAAAAA-A      AAAAL4           294.306    0.013      0          0          0          0

AAAAAAAAAAD5     AAAAL4           AAAAAAAAA-B      97.112     0.013      0          0          0          0
AAAAAAAAB_P      AAAAAAAAA-C      AAAAAAAAA-D      176.594    0.013      0          0          0          0
AAAAAAAAB_Q      AAAAAAAAA-G      AAAAAAAAA-F      368.644    0.013      0          0          0          0
AAAAAAAAB_R      AAAAAAAAA-I      AAAAAAAAA-P      739.185    0.013      0          0          0          0
AAAAAAAAB_S      AAAAAAAAA-K      AAAAAAAAA-L      561.737    0.013      0          0.23       0          0
AAAAAAAAB_T      AAAAAAAAA-J      AAAAAAAAA-I      726.286    0.013      0          0.59       0          0
AAAAAAAAB_U      AAAAAAAAA-L      AAAAAAAAA-J      709.726    0.013      0          0.02       0          0
AAAAAAAAB_V      AAAAAAAAA-M      AAAAAAAAA-L      637.261    0.013      0          1.75       0          0
AAAAAAAAB_W      AAAAAAAAA-N      AAAAAAAAA-M      116.953    0.013      0          0.04       0          0
AAAAAAAAB_X      AAAAAAAAA-O      AAAAAAAAA-K      779.323    0.013      0          0.07       0          0
AAAAAAAAB_Y      AAAAAAAAA5_      AAAAAAAAA5-      59.164     0.013      0          0          0          0
AAAAAAAAB_Z      AAAAAAAAA63      AAAAAAAAA3X      555.164    0.013      0          0          0          0
AAAAAAAAB_0      AAAAAAAAA3N      AAAAAAAAA3O      341.41     0.013      0          0          0          0
AAAAAAAAB_1      AAAAAAAAAD0      AAAAAAAAAC_      33.518     0.013      0.23       0          0          0
AAAAAAAAB_2      AAAAAAAAAC_      AAAAAAAAAE0      31.086     0.013      0          0          0          0
AAAAAAAAB_3      AAAAAAAAA-X      AAAAAAAAA-W      439.002    0.013      0          0          0          0
AAAAAAAAB_4      AAAAAAAAA-W      AAAAAAAAA-V      212.084    0.013      0          0          0          0
AAAAAAAAB_5      AAAAAAAAA-V      AAAAAAAAA-U      78.45      0.013      0          0          0          0
AAAAAAAAB_6      AAAAAAAAA-U      AAAAAAAAA-S      544.249    0.013      0          0          0          0
AAAAAAAAB_7      AAAAAAAAA-S      AAAAAAAAA-T      581.576    0.013      0          0          0          0
AAAAAAAAB_8      AAAAAAAAA-T      AAAAAAAAA-O      935.36     0.013      0          0.02       0          0
AAAAAAAAB_9      AAAAAAAAA-Q      AAAAAAAAA-R      796.757    0.013      0          0          0          0
AAAAAAAAB_-      AAAAAAAAA-R      AAAAAAAAA-S      306.275    0.013      0          0          0          0
AAAAAAAAB__      AAAAAAAAA-Z      AAAAAAAAA-Y      294.047    0.013      0          0          0          0
AAAAAAAACA0      AAAAAAAAA-0      AAAAAAAAA-Z      305.773    0.013      0          0          0          0
AAAAAAAACA1      AAAAAAAAA7E      AAAAAAAAA7S      566.54     0.013      0          0.13       0          0
AAAAAAAAAAD6     AAAAAAAAAE1      AAAAAAAAAA6      70.486     0.03       0          0          0          0
AAAAAAAACA2      AAAAAAAAA92      AAAAAAAAA97      382.089    0.013      0          0          0          0

AAAAAAAACA3      AAAAAAAAAE2      AAAAAAAAAA9      390.636    0.019      0          1.3        0          0
AAAAAAAACA4      AAAAAAAAAE5      AAAAAAAAAE4      264.839    0.013      0          0          0          0

AAAAAAAACA5      AAAAAAAAAAAAA_   AAAAAAAAAAB9     193.4      0.013      0          0          0          0
AAAAAAAACA6      AAAAAAAAAG1      AAAAAAAAAAAAB1   123.394    0.013      0          0          0          0

AAAAAAAACA7      AAAAAAAAAE4      AAAAAAAAAA9      36.483     0.013      0          10.5       0          0
AAAAAAAACA8      AAAAAAAAA-2      AAAAAAAAA-1      35         0.013      0          2.47       0          0
AAAAAAAACA9      AAAAAAAAAT7      AAAAAAAAA-1      214.454    0.013      0          0.55       0          0
AAAAAAAACA-      AAAAAAAAAT8      AAAAAAAAA-2      87.42      0.013      0          0          0          0
AAAAAAAACA_      AAAAAAAAA-1      AAAAAAAAD6       29         0.013      0          0.46       0          0
AAAAAAAACB0      AAAAAAAAA4C      AAAAAAAAAAB3     35.2       0.013      0          0          0          0
AAAAAAAAAAD7     AAAAAAAAAAB3     AAAAAAAAA4B      262.1      0.01       0          0          0          0
AAAAAAAACB1      AAAAAAAAA-4      AAAAAAAAA5K      371.632    0.013      0          0          0          0

AAAAAAAACB2      AAAAAAAAA5G      AAAAAAAAA-4      388.954    0.013      0          1          0          0
AAAAAAAACB3      AAAAAAAAA5C      AAAAAAAAA-5      458.485    0.014      0          0          0          0
AAAAAAAAAAD8     AAAAAAAAA5C      AAAAAAAAA-5      458.485    0.014      0          0          0          0
AAAAAAAAAAD9     AAAAAAAAA5C      AAAAAAAAA-5      458.485    0.014      0          0          0          0

AAAAAAAACB4      AAAAAAAAAAAAB1   AAAAAAAAAA8      15         0.013      0          1.1        0          0

AAAAAAAACB5      AAAAAAAAAAAAB0   AAAAAAAAAAA2     416        0.013      0          0          0          0

AAAAAAAAAAD-     AAAAAAAAAAA2     AAAAAAAAAG0      417        0.013      0          0          0          0

AAAAAAAAAAD_     AAAAAAAAAG0      AAAAAAAAAAAAA_   836        0.013      0          0          0          0

AAAAAAAAAAE0     AAAAAAAAAAAAB2   AAAAAAAAAAAAA_   11.971     0.013      0          58.61      0          0

AAAAAAAACB6      AAAAAAAAA8V      AAAAAAAAC4       258.787    0.013      0          0          0          0

AAAAAAAACB7      AAAAAAAAAAAAD9   AAAAAAAAA-8      229.74     0.013      0          0          0          0

AAAAAAAACB8      AAAAAAAAA-8      AAAAAAAAA--      98.43      0.013      0          5          0          0
AAAAAAAACB9      AAAAAAAAAAAAAD-  AAAAAAAAAAAAAD_  312.2      0.013      0          10.75      0          0
AAAAAAAACB-      AAAAAAAAA6X      AAAAAAAAA-9      628.58     0.013      0          0          0          0
AAAAAAAACB_      AAAAL2           AAAAAAAAA6Z      195.958    0.013      0          0          0          0
AAAAAAAAAAE1     AAAAAAAAA-9      AAAAL2           106.307    0.013      0          0          0          0
AAAAAAAACC0      AAAAAAAAA-6      AAAAAAAAAAAAE7   33.217     0.013      0.15       7.25       0          0
AAAAAAAACC1      AAAAAAAAAAAAAD_  AAAAAAAAAAAAE6   38.111     0.013      0          63.5       0          0
AAAAAAAACC2      AAAAAAAAA--      AAAAAAAAAAAAAAA7 5505.31    0.013      0          0          0          0

AAAAAAAACC3      AAAAAAAAAAAAAAA7 AAAAAAAAAAAAE6   418.49     0.013      0          4          0          0
AAAAAAAACC4      AAAAAAAAA_E      AAAAAAAAA_D      136.841    0.013      0          0.6        0          0
AAAAAAAACC5      AAAAAAAAA_D      AAAAAAAAA_A      354.732    0.013      0          0          0          0
AAAAAAAACC6      AAAAAAAAAAB7     AAAAAAAAA_A      279.61     0.013      0          0          0          0
AAAAAAAACC7      AAAAAAAAA-_      AAAAAAAAA_F      182.724    0.013      0          3.09       0          0
AAAAAAAACC8      AAAAAAAAA_A      AAAAAAAAAAAB7    379.298    0.013      0          0          0          0

AAAAAAAACC9      AAAAAAAAAAAB6    AAAAAAAAA_C      322        0.013      0          0          0          0
AAAAAAAACC-      AAAAAAAAA3U      AAAAAAAAA_B      31.9       0.013      0          0          0          0
AAAAAAAACC_      AAAAAAAAAAAB5    AAAAAAAAA3O      60         0.013      0          3          0          0
AAAAAAAACD0      AAAAAAAAA91      AAAAAAAAA90      400        0.013      0          0          0          0
AAAAAAAACD1      AAAAAAAAA_C      AAAAAAAAA3P      435.172    0.013      0          1.9        0          0

AAAAAAAACD2      AAAAAAAAAAAAAC2  AAAAAAAAA8S      486.176    0.013      0          0          0          0
AAAAAAAACD3      AAAAAAAAAB1      AAAAAAAAAB2      371.82     0.013      0          1.3        0          0
AAAAAAAACD4      AAAAAAAAAB2      AAAAAAAAAB3      133.2      0.013      0          2.43       0          0
AAAAAAAACD5      AAAAAAAAAB3      AAAAAAAAAAA_     172.1      0.013      0          4.8        0          0

AAAAAAAAAAE2     AAAAAAAAA_N      AAAAAAAAAK-      1677.283   0.01       0          0          0          0

AAAAAAAAAAE3     AAAAL6           AAAAAAAAA_N      1209.283   0.01       0          0          0          0

AAAAAAAACD6      AAAAAAAAA8I      AAAAAAAAC3       334.584    0.013      0          0          0          0

AAAAAAAACD7      AAAAAAAAAAAAD7   AAAAAAAAA_G      622.966    0.013      0          0.05       0          0

AAAAAAAACD8      AAAAAAAAA_G      AAAAAAAAAAAAD4   848.462    0.013      0          0          0          0

AAAAAAAACD9      AAAAAAAAAAAAD4   AAAAAAAAA_H      1135.675   0.013      0          0          0          0

AAAAAAAACD-      AAAAAAAAA83      AAAAAAAAC2       114.638    0.013      0          0          0          0

AAAAAAAACD_      AAAAAAAAA_H      AAAAAAAAAAAAD3   1119.282   0.013      0          0.08       0          0
AAAAAAAACE0      AAAAAAAAA84      AAAAAAAAA_M      179.759    0.013      0          0          0          0
AAAAAAAACE1      AAAAAAAAA_M      AAAAAAAAA_L      23.356     0.013      0          0          0          0
AAAAAAAACE2      AAAAAAAAA_L      AAAAAAAAA_K      19.772     0.013      0          0          0          0
AAAAAAAACE3      AAAAAAAAA_K      AAAAAAAAA_J      282.516    0.013      0          0          0          0
AAAAAAAACE4      AAAAAAAAA_J      AAAAAAAAA_I      21.725     0.013      0          0          0          0

AAAAAAAAAAE4     AAAAAAAAAAAAAB_  AAAAAAAAAAAAC8   95.5       0.013      0          0          0          0
AAAAAAAACE5      AAAAAAAAAAAAC8   AAAAAAAAA87      556.161    0.013      0          0          0          0

AAAAAAAACE6      AAAAAAAAAAAAD3   AAAAAAAAA_O      575.274    0.013      0.08       0.01       0          0

AAAAAAAACE7      AAAAAAAAA_O      AAAAAAAAC1       558.6      0.013      0          0          0          0

AAAAAAAACE8      AAAAAAAAAAAAAB6  AAAAAAAAAD5      451.222    0.013      0          0          0          0
AAAAAAAACE9      AAAAAAAAAAB_     AAAAAAAAAAAAAB6  74         0.013      0          0          0          0
AAAAAAAACE-      AAAAAAAAA_R      AAAAAAAAAAAAAB6  267.588    0.013      0          0.88       0          0
AAAAAAAACE_      AAAAAAAAA_Q      AAAAAAAAA_R      33.285     0.014      0          0          0          0

AAAAAAAACF0      AAAAAAAAAAAAC9   AAAAAAAAAAAAAAAAA2 246.37   0.013      0          0          0          0
AAAAAAAACF1      AAAAAAAAA_P      AAAAAAAAA_Q      118.984    0.013      0          0          0          0
AAAAAAAACF2      AAAAAAAAA_S      AAAAAAAAA_P      45.104     0.014      0          0.75       0          0
AAAAAAAACF3      AAAAAAAAAD3      AAAAAAAAA_T      36.1       0.013      0          0          0          0
AAAAAAAACF4      AAAAAAAAA_T      AAAAAAAAA_U      17.4       0.013      0          0          0          0
AAAAAAAACF5      AAAAAAAAA_U      AAAAAAAAA_P      73         0.013      0          0          0          0

AAAAAAAAA_W      AAAAAAAABD4      AAAAAAAAA_W      257        0.013      0          0          0          0
AAAAAAAAAAAAAAB3 AAAAAAAAAAAAAAAA1 AAAAAAAAAAAAAAAA2 41       0.013      0          0          0          0
AAAAAAAAAAAAAF0  AAAAAAAAAAAAAAA8 AAAAAAAAAAAAAAA- 41         0.013      0          0          0          0
AAAAAAAAAAAAAF1  AAAAAAAAAAAAAAA9 AAAAAAAAAAAAAAA_ 41         0.013      0          0          0          0
AAAAAAAAAAAAAAB4 AAAAAAAAAAAAAAAA2 AAAAAAAAA_X     16         0.013      0          0          0          0
AAAAAAAAAAAAAF2  AAAAAAAAAAAAAAA- AAAAAAAAA_X      16         0.013      0          0          0          0
AAAAAAAAAAAAAF3  AAAAAAAAAAAAAAA_ AAAAAAAAA_X      16         0.013      0          0          0          0
AAAAAAAACF6      AAAAAAAAA_X      AAAAAAAAA_Y      20         0.013      0          0          0          0

AAAAAAAACF7      AAAAAAAAA_V      AAAAAAAAAAAAAAAAA3 799.61   0.013      0          0          0          0

AAAAAAAACF8      AAAAAAAAA_W      AAAAAAAAAA6      257        0.013      0          2.35       0          0
AAAAAAAACF9      AAAAAAAAA_Y      AAAAAAAAAD3      31         0.013      0          0          0          0
AAAAAAAACF-      AAAAAAAAA_2      AAAAAAAAA_1      14.83      0.013      0          0          0          0
AAAAAAAACF_      AAAAAAAAA_1      AAAAAAAAA_0      13.51      0.013      0          0.83       0          0
AAAAAAAACG0      AAAAAAAAA_0      AAAAAAAAA_3      340.526    0.013      0          0          0          0

AAAAAAAACG1      AAAAAAAAA_3      AAAAAAAAAD2      11.401     0.013      0          3.01       0          0

AAAAAAAACG2      AAAAAAAAA_Z      AAAAAAAAA_4      1540       0.013      0          0          0          0

AAAAAAAACG3      AAAAAAAAA_4      AAAAAAAAAAAD-    1305.68    0.013      0          0          0          0

AAAAAAAACG4      AAAAAAAAAAAAAB9  AAAAAAAAA_6      131.397    0.013      0          0          0          0

AAAAAAAACG5      AAAAAAAAA_6      AAAAAAAAA_5      319.255    0.013      0          0          0          0

AAAAAAAACG6      AAAAAAAAA_5      AAAAAAAAA_7      318.216    0.013      0          0          0          0
AAAAAAAACG7      AAAAAAAAAI2      AAAAAAAAA__      102.543    0.013      0          0          0          0
AAAAAAAACG8      AAAAAAAAAAAAB-   AAAAAAAAA-3      32         0.013      0          0          0          0
AAAAAAAACG9      AAAAAAAAA-3      AAAAAAAAAU7      24         0.013      0          0          0          0

AAAAAAAACG-      AAAAAAAAA_7      AAAAAAAAA_8      324.997    0.013      0          0          0          0

AAAAAAAACG_      AAAAAAAAA_9      AAAAAAAAA_-      323.77     0.013      0          0          0          0
AAAAAAAACH0      AAAAAAAAAAA1     AAAAAAAAAAAAC4   173.106    0.013      0          0          0          0
AAAAAAAACH1      AAAAAAAAAAAAC4   AAAAAAAAAA5      67.095     0.013      0          0          0          0
AAAAAAAACH2      AAAAAAAAAA5      AAAAAAAAAA4      22.281     0.013      0          0          0          0
AAAAAAAACH3      AAAAAAAAAA4      AAAAAAAAAAAAAD7  493.914    0.012      0          0          0          0
AAAAAAAACH4      AAAAAAAAAAAAAD7  AAAAAAAAAA2      582.717    0.012      0          0          0          0
AAAAAAAACH5      AAAAAAAAAN5      AAAAAAAAC0       69.19      0.013      0          1          0          0

AAAAAAAACH6      AAAAAAAAAAAAAD6  AAAAAAAAAAAAAD7  57.335     0.013      0          2.22       0          0

AAAAAAAACH7      AAAAAAAAA_8      AAAAAAAABA0      324.959    0.013      0          0          0          0

AAAAAAAACH8      AAAAAAAABA0      AAAAAAAAA_9      326.091    0.013      0          0          0          0
AAAAAAAACH9      AAAAAAAABB0      AAAAAAAABC2      307.405    0.013      0          2.46       0          0

AAAAAAAACH-      AAAAAAAABC2      AAAAAAAABA1      300.161    0.013      0          0.43       0          0

AAAAAAAACH_      AAAAAAAABA2      AAAAAAAABB0      236.498    0.013      0          0.1        0          0

AAAAAAAACI0      AAAAAAAABA3      AAAAAAAABA2      214.992    0.013      0          0.04       0          0
AAAAAAAACI1      AAAAAAAAAA2      AAAAAAAAAA1      103.562    0.012      0          0          0          0
AAAAAAAACI2      AAAAAAAAAA1      AAAAAAAAAAAAC1   1264.438   0.013      0          0          0          0
AAAAAAAAAAE5     AAAAAAAAAAAAC1   AAAAAAAAAA3      35         0.013      0          0          0          0
AAAAAAAACI3      AAAAAAAAAA3      AAAAAAAAAAAAAAAAAAA0 275.696 0.013     0          0          0          0

AAAAAAAACI4      AAAAAAAAAO7      AAAAAAAAD2       19.174     0.013      0          1.89       0          0
AAAAAAAACI5      AAAAAAAAAAAA5    AAAAAAAABA5      108.32     0.013      0          0.1        0          0
AAAAAAAACI6      AAAAAAAABA5      AAAAL1           29.389     0.013      0          0          0          0

AAAAAAAACI7      AAAAAAAABA7      AAAAAAAABA4      21         0.013      0          0          0          0

AAAAAAAACI8      AAAAAAAABA6      AAAAAAAABA7      57.2       0.013      0          0          0          0

AAAAAAAAAAE6     AAAAAAAAAAAAA7   AAAAAAAABA6      51.88      0.013      0          0          0          0
AAAAAAAACI9      AAAAAAAAAAAAAAAAAAA0 AAAAAAAAAE1  1314.92    0.013      0          1.62       0          0
AAAAAAAACI-      AAAAAAAAA_-      AAAAAAAAAA7      253.681    0.013      0          3.38       0          0
AAAAAAAACI_      AAAAAAAABA1      AAAAAAAAAA7      21.013     0.013      0          4          0          0
AAAAAAAACJ0      AAAAAAAAAD_      AAAAAAAABA8      67         0.013      0          0          0          0
AAAAAAAACJ1      AAAAAAAABA8      AAAAAAAABA9      10         0.013      0          0          0          0
AAAAAAAAAAAAAAB5 AAAAAAAABA9      AAAAAAAAAAAAAAAA1 16        0.013      0          0          0          0
AAAAAAAAAAAAAF4  AAAAAAAABA9      AAAAAAAAAAAAAAA8 16         0.013      0          0          0          0
AAAAAAAAAAAAAF5  AAAAAAAABA9      AAAAAAAAAAAAAAA9 16         0.013      0          0          0          0
AAAAAAAACJ2      AAAAAAAAAD7      AAAE3            357.917    0.013      0          0.06       0          0

AAAAAAAAAAE7     AAAE3            AAAAAAAAA4       350        0.013      0          0          0          0
AAAAAAAACJ3      AAAAAAAAAA7      AAAAAAAABA-      607.064    0.012      0          0.5        0          0

AAAAAAAACJ4      AAAAAAAAA__      AAAAAAAAD9       20         0.019      0          1.44       0          0

AAAAAAAAAAE8     AAAAAAAAAAAAC5   AAAAAAAAB0       261.889    0.019      0          0          0          0

AAAAAAAACJ5      AAAAAAAAAAAAA6   AAAAAAAABC2      210.31     0.013      0          1.01       0          0

AAAAAAAACJ6      AAAAAAAAAAB0     AAAAAAAAA_       80.202     0.013      0          0.4        0          0

AAAAAAAAAAE9     AAAAAAAAAAAA3    AAAAAAAAD8       240.782    0.013      0          4.21       0          0

AAAAAAAACJ7      AAAAAAAABB2      AAAAAAAAAAA1     432.28     0.013      0          0          0          0

AAAAAAAACJ8      AAAAAAAAAAAAC7   AAAAAAAABB1      593.909    0.013      0          0.01       0          0

AAAAAAAACJ9      AAAAAAAABB1      AAAAAAAABB3      622.497    0.013      0          0.005      0          0

AAAAAAAACJ-      AAAAAAAABB3      AAAAAAAABB4      319.848    0.013      0          0          0          0

AAAAAAAACJ_      AAAAAAAABB4      AAAAAAAABB2      587.555    0.013      0          0.01       0          0

AAAAAAAACK0      AAAAAAAABB5      AAAAAAAAA-       43.071     0.013      0          1.1        0          0

AAAAAAAACK1      AAAAAAAAAAAAA5   AAAAAAAAAN6      89.939     0.013      0          0.99       0          0

AAAAAAAACK2      AAAAAAAAAM9      AAAAAAAAAAAAAB8  50         0.013      0          0          0          0
AAAAAAAACK3      AAAAAAAAA3G      AAAAAAAABB7      232.679    0.013      0          0          0          0
AAAAAAAACK4      AAAAAAAAA3G      AAAAAAAAA29      354.698    0.013      0          0          0          0

AAAAAAAACK5      AAAAAAAABA-      AAAAAAAABA_      715.561    0.013      0          0          0          0
AAAAAAAACK6      AAAAAAAAAD2      AAAAAAAABB9      48.716     0.013      0          0          0          0
AAAAAAAACK7      AAAAAAAABB9      AAAAAAAABB-      249.176    0.013      0          0          0          0
AAAAAAAACK8      AAAAAAAABB-      AAAAAAAABC5      190.608    0.013      0          0          0          0
AAAAAAAACK9      AAAAAAAAAD1      AAAAAAAABB8      68.636     0.013      0          0.05       0          0
AAAAAAAACK-      AAAAAAAABB8      AAAAAAAAAD2      52.628     0.013      0          0          0          0

AAAAAAAACK_      AAAAAAAABD2      AAAAAAAAAD1      953.542    0.012      0          0          0          0
AAAAAAAACL0      AAAAAAAABC0      AAAAAAAAAAAB8    88.73      0.013      0          6.06       0          0

AAAAAAAAAAAE2    AAAAAAAAAAAB8    AAAAAAAAAN-      218.7      0.013      0          0          0          0
AAAAAAAACL1      AAAAAAAABC1      AAAAAAAABC0      80.68      0.013      0          0.4        0          0
AAAAAAAACL2      AAAAAAAAA2V      AAAAAAAAA26      438.845    0.013      0          0          0          0
AAAAAAAACL3      AAAAAAAAA2U      AAAAAAAAAL4      399.231    0.013      0          0          0          0
AAAAAAAACL4      AAAAAAAAAL4      AAAAAAAAA2V      510.532    0.013      0          0          0          0
AAAAAAAACL5      AAAAAAAAAM3      AAAAAAAABC3      191.35     0.013      0          0          0          0
AAAAAAAACL6      AAAAAAAABC3      AAAAAAAABC4      29.8       0.013      0          0          0          0
AAAAAAAACL7      AAAAAAAABC4      AAAAAAAAAM8      65         0.013      0          0          0          0
AAAAAAAACL8      AAAAAAAABC6      AAAAAAAAAD6      28.13      0.013      0          0.03       0          0
AAAAAAAACL9      AAAAAAAAAM8      AAAAAAAABC6      47.2       0.013      0          0          0          0
AAAAAAAACL-      AAAAAAAAD1       AAAAAAAABC9      46.607     0.013      0          0.02       0          0
AAAAAAAACL_      AAAAAAAABC9      AAAAAAAABC_      50.319     0.013      0          0          0          0
AAAAAAAACM0      AAAAAAAABC_      AAAAAAAABC-      35.094     0.013      0          0          0          0
AAAAAAAACM1      AAAAAAAABC-      AAAAAAAABC8      41.718     0.013      0          0          0          0
AAAAAAAACM2      AAAAAAAABC8      AAAAAAAABC7      76.466     0.013      0          0          0          0

AAAAAAAACM3      AAAAAAAABA_      AAAAAAAABD2      1279.516   0.013      0          0.01       0          0
AAAAAAAACM4      AAAAAAAABC7      AAAAAAAABD1      51.697     0.013      0          0          0          0
AAAAAAAACM5      AAAAAAAABD0      AAAAAAAAA_3      105.594    0.013      0          0          0          0
AAAAAAAACM6      AAAAAAAABD1      AAAAAAAABD0      361.002    0.013      0          0          0          0
AAAAAAAACM7      AAAAAAAAA27      AAAAAAAAA2W      308.933    0.013      0          0          0          0

AAAAAAAACM8      AAAAAAAABC5      AAAAAAAABD3      42.5       0.013      0          3.5        0          0

AAAAAAAABD4      AAAAAAAABD3      AAAAAAAABD4      30         0.013      0          0          0          0

AAAAAAAACM9      AAAAAAAABD5      AAAAAAAABA3      236.364    0.013      0          0.19       0          0

AAAAAAAACM-      AAAAAAAAAAAAAB8  AAAAAAAABD5      59.002     0.013      0          0          0          0

AAAAAAAACM_      AAAAAAAAAN_      AAAAAAAAA9       306.375    0.013      0          2.29       0          0

AAAAAAAAAAE-     AAAAL5           AAAAAAAAAN5      229.103    0.013      0          0.13       0          0

AAAAAAAACN0      AAAAAAAAAAAAAB7  AAAAAAAAAM9      60.705     0.013      0          1.77       0          0
AAAAAAAACN1      AAAAAAAABD6      AAAAAAAAAA_      40.942     0.013      0          0.25       0          0
AAAAAAAACN2      AAAAAAAABD7      AAAAAAAAA10      332.4      0.013      0          0          0          0
AAAAAAAACN3      AAAAAAAAA8P      AAAAAAAAA8O      168.894    0.013      0          0          0          0
AAAAAAAACN4      AAAAAAAAAI1      AAAAAAAAA__      346.091    0.013      0          2          0          0
AAAAAAAACN5      AAAAAAAAA62      AAAAAAAAA61      853        0.013      0          0          0          0
AAAAAAAACN6      AAAAAAAAA80      AAAAAAAABD9      571.852    0.013      0          0          0          0
AAAAAAAACN7      AAAAAAAABD9      AAAAAAAABD8      154.709    0.013      0          0.05       0          0

AAAAAAAACN8      AAAAAAAABD8      AAAAAAAAAAAAA8   472.444    0.013      0          0.75       0          0
AAAAAAAACN9      AAAAAAAAA9T      AAAAAAAAA9S      42.4       0.013      0          0          0          0
AAAAAAAACN-      AAAAAAA-         AAAAAAAAC6       30         0.012      0          0          0          0
AAAAAAAACN_      AAAAAAAAC6       AAAAAAAAC8       128.47     0.012      0          0          0          0
AAAAAAAACO0      AAAAAAAAC8       AAAAAAAAC-       38.2       0.012      0          0          0          0
AAAAAAAACO1      AAAAAAAAC-       AAAAAAAABE0      847.43     0.012      0          0          0          0
AAAAAAAACO2      AAAAAAAABE2      AAAAAAAAC7       30         0.012      0          0          0          0
AAAAAAAACO3      AAAAAAAAC7       AAAAAAAAC9       128.47     0.012      0          0          0          0
AAAAAAAACO4      AAAAAAAAC9       AAAAAAAAC_       38.2       0.012      0          0          0          0
AAAAAAAACO5      AAAAAAAAC_       AAAAAAAABE0      847.43     0.012      0          0          0          0
AAAAAB8          AA4              AA3              430.31     0.05       0          0          0          0
AAA0             AAAAAAAABE1      AAA0             61.7       0.013      0          0          0          0

AAAAAAAAAAAAE9   AAAAAAAAAAAAAAAAA2 AAAAAAAAA_V    103.76     0.013      0          0          0          0

AAAAAAAAAAAAE-   AAAAAAAAAAAAAAAAA3 AAAAAAAAAAAAAAAAA4 168.32 0.013      0          0          0          0

AAAAAAAAAAAAE_   AAAAAAAAAAAAAAAAA4 AAAAAAAAA_Z    1458.33    0.013      0          0          0          0

[PUMPS]


AAAAM3           AAAAAB4          AAAAAAAAD0       AAAAAAB7         ON       15.000000 13.000000
AAAAM4           AAAAAB4          AAAAAAAAD0       AAAAAAB7         ON       14.000000 12.000000
AAAAM5           AAAAAB4          AAAAAAAAD0       AAAAAAB7         ON       13.000000 11.000000
AAAAM6           AAAAAB4          AAAAAAAAD0       AAAAAAB7         ON       12.500000 10.000000
AAAAM7           AAAAAB4          AAAAAAAAD0       AAAAAAB7         ON       12.000000 9.000000
AAAAAAAAAAAAF0   AAAAAAAAAAAAE7   AAAAAAAA1        AAAE5            ON       0.0      0.0
AAAAAAAAE9       AAAAAAAAD-       AAAAAAAAAAAAAAAAA1 *              ON       0.000000 0.000000
AAAAAAAA_        AAAAAAAAAAAAE6   AAAAAAAAAAAAAAAA0 AAAAAAAAAAF2    OFF      0.0      0.0

AAAAAAAAE-       AAAAL8           AAAAAAAAAA0      *                ON       12.140000 4.140000

AAAAAB9          AAAAAAAABE0      AAAAAAAABE1      AAAAAAAAAAAAAAD- ON       0        0

AAAAAB-          AAAAAAAABE0      AAAAAAAABE1      AAAAAAAAAAAAAAD9 ON       0        0

AAAAAB_          AAAAAAAABE0      AAAAAAAABE1      AAAAAAAAAAAAAAD_ ON       0        0

[ORIFICES]


AAAAAAAAAAAAAF6  AAAAAAAAA4       AAAAAB2          SIDE         6          0.65       NO       0
AAAAAAAB0        AAAAAAAAA4       AA2              SIDE         0.000000   0.650000   NO       0
AAAAM8           AAAAAAAAA61      AAAAAAAAAAAB4    SIDE         0.000000   0.800000   NO       0
AAAAAC0          AAAAAAAAA_B      AAAAAAAAAAAB5    SIDE         0.000000   0.800000   NO       0
AAAAAC1          AAAAAAAAAAAB7    AAAAAAAAA3O      SIDE         0.000000   0.800000   NO       0
AAAAAC2          AAAAAAAAA6Y      AAAAAAAAAAAB1    SIDE         0.000000   0.800000   NO       0
AAAAAC3          AAAAAAAAA6Y      AAAAAAAAAAAB2    SIDE         7.760000   0.800000   NO       0
AAAAAC4          AAAAAAAAAAAB3    AAAAAAAAA6Y      SIDE         0.000000   0.800000   NO       0
AAAAAAB0         AAAAAAAAA8       AAAAAAAAAAB_     SIDE         0.000000   0.650000   NO       0

AAAAAAB1         AAAAAAAAA8       AAAAAAAAAAB_     SIDE         2          0.65       NO       0
AAAAAAB2         AAAAAAAAA8       AAAAAAAAAAB_     SIDE         3          0.65       NO       0

AAAAAAB3         AAAAAAAAC4       AAAAAAAAAAAAD6   SIDE         0.000000   0.650000   NO       0

AAAAAAB4         AAAAAAAAAAAAAAAAA0 AAAAAAAAA1K    SIDE         16.800000  0.650000   YES      0
AAAAAAAB1        AAAAAAAAAAAAAAAAA0 AAAAAAAAA1K    SIDE         16.800000  0.650000   YES      0
AAAAAAAAAAAAAF7  AAAE3            AAAAAAAAAAAAAB2  SIDE         3.640000   0.650000   NO       0
AAAAAAAAAAAAF1   AAAAAAAAA_Q      AAAAL8           SIDE         4.920000   0.650000   NO       0

AAAAAAAAAAAAAAAAB0 AAAAAAAAA6     AAAAAAAAAAAAAE1  SIDE         0.000000   0.950000   NO       0

AAAAAAAAAAAAAAAAB1 AAAAAAAAAAAAAE1 AAAAAAAAAAAAAB3 SIDE         0          0.65       NO       0

AAAAAAAAAAAAAAAA- AAAAAAAAAAAAAB4 AAAAAAAAAAAAAE2  SIDE         0.000000   0.950000   NO       0
AAAAAAAAAAAAAAAAB2 AAAAAAAAAAAAAE2 AAAAAAAAAAAAAB5 SIDE         0          0.65       NO       0

AAAAAAAAAAAAAAAAB3 AAAAAAAAA9     AAAAAAAAAAAAAB7  SIDE         0.000000   0.600000   NO       0
AAAAAAAAAAAAAAAAB4 AAAAAAAAAAAAAAA1 AAAAAAAAAAAAAE3 SIDE        0          0.6        NO       0

AAAAAAAAAAAAAAAAB5 AAAAAAAAAAAAAE3 AAAAAAAAAAAAAB8 SIDE         0.000000   0.600000   NO       0

AAAAAAAAAAAAAAAA_ AAAAAAAAA_      AAAAAAAAAAAAA6   SIDE         0.000000   0.600000   NO       0
AAAAAAAAAAAAAAAAB6 AAAAAAAAB0     AAAAAAAAAAAAAE4  SIDE         0.000000   0.600000   NO       0

AAAAAAAAAAAAAAAAB7 AAAAAAAAAAAAAE4 AAAAAAAAAAAAAB9 SIDE         0.000000   0.600000   NO       0

AAAAAAAAAAAAAAAAB8 AAAAAAAAB2     AAAAAAAAAAAAAE5  SIDE         0.000000   0.950000   NO       0

AAAAAAAAAAAAAAAAB9 AAAAAAAAAAAAAE5 AAAAAAAAAAAAAB- SIDE         0          0.65       NO       0
AAAAAAAAAAAAAAAAAA9 AAAAAAAAAAAAE1 AAAAAAAAAAAAE2  SIDE         1.67       0.65       NO       0

AAAAAAAAAAAAAAAAB- AAAAAAAAAAAAE1 AAAAAAAAAAAAAE5  SIDE         0          0.65       NO       0
AAAAAAAAAAAAAAAAB_ AAAAAAAAB3     AAAAAAAAAAAAAE6  SIDE         0.000000   0.850000   NO       0

AAAAAAAAAAAAAAAAC0 AAAAAAAAAAAAAE6 AAAAAAAAAAAAAB_ SIDE         0.000000   0.850000   NO       0

AAAAAAAAAAAAAAAAC1 AAAAAAAAB4     AAAAAAAAAAAAAE7  SIDE         0.000000   0.950000   NO       0

AAAAAAAAAAAAAAAAC2 AAAAAAAAAAAAAE7 AAAAAAAAAAAAAC0 SIDE         0.000000   0.650000   NO       0

AAAAAAAAAAAAAAAAC3 AAAAAAAAB5     AAAAAAAAAAAAAE8  SIDE         0.000000   0.950000   NO       0

AAAAAAAAAAAAAAAAC4 AAAAAAAAAAAAAE8 AAAAAAAAAAAAAC1 SIDE         0          0.65       NO       0

AAAAAAAAAAAAAAAAC5 AAAAAAAAB6     AAAAAAAAAAAAAE9  SIDE         0.000000   0.950000   NO       0

AAAAAAAAAAAAAAAAC6 AAAAAAAAAAAAAE9 AAAAAAAAAAAAAC2 SIDE         0.000000   0.650000   NO       0

AAAAAAAAAAAAAAAAAA- AAAAAAAAAA8   AAAAAAAAAAAAAAA2 SIDE         0.000000   0.600000   NO       0

AAAAAAAAAAAAAAAAAA_ AAAAAAAAAAAAAAA2 AAAAAAAAAAAAAAA3 SIDE      0.000000   0.600000   NO       0

AAAAAAAAAAAAAAAAAB0 AAAAAAAAAA9   AAAAAAAAAAAAAAB0 SIDE         0.000000   0.600000   NO       0

AAAAAAAAAAAAAAAAAB1 AAAAAAAAAAAAAAB0 AAAAAAAAAAAAAC3 SIDE       0.000000   0.600000   NO       0
AAAAAAAAAAAAAAAB0 AAAAAAAAB7      AAAAAAAAAAAAAE-  SIDE         0.000000   0.950000   NO       0
AAAAAAAAAAAAAAAB1 AAAAAAAAAAAAAE- AAAAAAAAAAAAB3   SIDE         0.000000   0.650000   NO       0

AAAAAAAAAAAAAAAAC7 AAAAAAAAB8     AAAAAAAAAAAAAE_  SIDE         0.000000   0.650000   NO       0

AAAAAAAAAAAAAAAAC8 AAAAAAAAAAAAAE_ AAAAAAAAAAAAAC4 SIDE         0          0.65       NO       0
AAAAAAAAAAAAAAAAC9 AAAAAAAAAA-    AAAAAAAAAAAAAAA4 BOTTOM       0.000000   0.650000   NO       0

AAAAAAAAAAAAAAAB2 AAAAAAAAD6      AAAAAAAAAAAAB-   SIDE         0.000000   0.650000   NO       0
AAAAAAAAAAAAAF8  AAAAAAAAAAAAAD0  AAAAAAAAAAAAAD1  SIDE         0          0.65       NO       0

AAAAAAAAAAAAAAB6 AAAAAAAAAAAAB_   AAAAAAAAAAAAC0   BOTTOM       0.000000   0.650000   NO       0

AAAAAAAAAAAAAAAB3 AAAAAAAAC0      AAAAAAAAAAAAAD6  BOTTOM       0.000000   0.800000   NO       0
AAAAAAAAAAAAAAAB4 AAAAAAAAAAAAC2  AAAAAAAAAAAAC3   BOTTOM       0.000000   0.650000   NO       0

AAAAAAAAAAAAAAAAAAAAA5 AAAAAAAAD8 AAAAAAAAAAAAD_   SIDE         9.750000   0.650000   NO       0

AAAAAAAAAAAAAAAAAB2 AAAAAAAAD8    AAAAAAAAAAAAC4   BOTTOM       0.000000   0.800000   NO       0
AAAAAAAAAAAAAAAAAB3 AAAAAAAAD8    AAAAAAAAAAAAC4   BOTTOM       0.000000   0.800000   NO       0

AAAAAAAAAAAAAAAB5 AAAAAAAAD9      AAAAAAAAAAAAC5   SIDE         0          0.6        NO       0

AAAAAAAAAAAAAAB7 AAAAAAAAAAAAC6   AAAAAAAAAAAAC7   SIDE         0.000000   0.800000   NO       0
AAAAAAAAAAAAAAAB6 AAAAAAAAAAAAC-  AAAAAAAAAAAAC9   SIDE         0.000000   0.650000   NO       0

AAAAAAAAAAAAAAAB7 AAAAAAAAAAAAC_  AAAAAAAAAAAAC8   SIDE         0          0.65       YES      0

AAAAAAAAAAAAAAAB8 AAAAAAAAC2      AAAAAAAAAAAAAD8  SIDE         0.000000   0.650000   NO       0

AAAAAAAAAAAAAAB8 AAAAAAAAAAAAE3   AAAAAAAAAAAAD3   SIDE         0.000000   0.650000   NO       0

AAAAAAAAAAAAAAAB9 AAAAAAAAC3      AAAAAAAAAAAAAD9  SIDE         0.000000   0.650000   NO       0

AAAAAAAAAAAAAAB9 AAAAAAAAAAAAE4   AAAAAAAAAAAAD4   SIDE         0.000000   0.650000   NO       0

AAAAAAAAAAAAAAB- AAAAAAAAAAAAE5   AAAAAAAAAAAAD7   SIDE         0.000000   0.650000   NO       0
AAAAAAAAAAAAAAB_ AAAAAAAAAAAAAAAAAAA1 AAAAAAAAAAB- SIDE         8.25       0.65       NO       0
AAAAAAAAAAAAAAAB- AAAAAAAAAAAAAAAAAAA1 AAAAAAAAAAAAD9 SIDE      0          0.65       NO       0

AAAAAAAAAAAAAAC0 AAAAAAAAAAB-     AAAAAAAAAAAA_    SIDE         0          0.65       NO       0
AAAAAAAAAAAAAAAB_ AAAAAAAAC5      AAAAAAAAAAAAAD-  SIDE         0.000000   0.650000   NO       0
AAAAAAAAAAAAAAC1 AAAAAAAAAAAAD-   AAAAAAAAAAAAE0   SIDE         2.000000   0.650000   NO       0
AAAAAAAAAAAAAAAAC- AAAAAAAAAAB9   AAAAAAAAAAAAAAAAAAA1 BOTTOM   0          0.65       NO       0





AAAAAAAAAAAAAAAAAAAAAAAAA0 AAAAAAAAAB5 AAAAAAAAAC1 SIDE         0          0.65       YES      0





AAAAAAAAAAAAAAAAAAAAAAAAA1 AAAAAAAAAB6 AAAAAAAAAC1 SIDE         0          0.65       YES      0





AAAAAAAAAAAAAAAAAAAAAAAAA2 AAAAAAAAAB7 AAAAAAAAAC1 SIDE         0          0.65       YES      0





AAAAAAAAAAAAAAAAAAAAAAAAA3 AAAAAAAAAB8 AAAAAAAAAC1 SIDE         0          0.65       YES      0





AAAAAAAAAAAAAAAAAAAAAAAAA4 AAAAAAAAAB9 AAAAAAAAAC1 SIDE         0          0.65       YES      0





AAAAAAAAAAAAAAAAAAAAAAAAA5 AAAAAAAAAB- AAAAAAAAAC1 SIDE         0          0.65       YES      0





AAAAAAAAAAAAAAAAAAAAAAAAA6 AAAAAAAAAB_ AAAAAAAAAC1 SIDE         0          0.65       YES      0





AAAAAAAAAAAAAAAAAAAAAAAAA7 AAAAAAAAAC0 AAAAAAAAAC1 SIDE         0          0.65       YES      0
AAAAAAAAAAAAAAAAC_ AA3            AAAAAAAAAAAAAAA0 SIDE         2          0.8        YES      0

AAAAAAAAAAAAAAAAD0 AA3            AAAAAAAAAAAAAAA0 SIDE         2          0.8        YES      0
AAAAAAAAAAAAAAAAD1 AA3            AAAAAAAAAAAAAAA0 SIDE         2          0.8        YES      0

AAAAAAAAAAAAAF9  AA3              AAAAAAAAAA0      SIDE         0.000000   0.650000   NO       0
AAAAAAAAAAAAAF-  AA3              AAAAAAAAAA0      SIDE         0.000000   0.650000   NO       0
AAAAAAAAAAAAAF_  AA4              AAAAAAAAAAA0     SIDE         0.000000   0.650000   NO       0
AAAAAAAAAAAAAG0  AA4              AAAAAAAAAB4      SIDE         0          0.65       NO       0
AAAAAAAAAAAAF2   AAAAAAAAA63      AAAAAAAAA3P      SIDE         0.27       0.8        NO       0

[WEIRS]


AAAAAAAAAAAE3    AAAAAAAAA4       AAAAAB2          TRANSVERSE   13.500000  3.330000   YES      0        0.000000   YES
AAAAAAB5         AA3              AAAAAAAAAA0      TRANSVERSE   1.77       3.33       NO       0        0          YES





AAAAAAB6         AA4              AAAAAAAAAAA0     TRANSVERSE   2.02       3.33       NO       0        0          YES

AAAAAAAAAAAAAAAC0 AAAAAAAAA6      AAAAAAAAAAAA1    TRANSVERSE   2.080000   3.000000   NO       0        0.000000   YES

AAAAAAAAAAAAAAAC1 AAAAAAAAA7      AAAAAAAAAAAA2    TRANSVERSE   1.930000   3.000000   NO       0        0.000000   YES

AAAAAAAAAAAAAAAAD2 AAAAAAAAA9     AAAAAAAAAAAAA4   TRANSVERSE   2.390000   3.300000   NO       0        0.000000   YES

AAAAAAAAAAAAAAAAD3 AAAAAAAAA-     AAAAAAAAAAAAA5   TRANSVERSE   1.833000   3.300000   NO       0        0.000000   YES

AAAAAAAAAAAAAAAC2 AAAAAAAAA_      AAAAAAAAAAAA3    TRANSVERSE   0.900000   3.300000   NO       0        0.000000   YES
AAAAAAAAAAAAAAAC3 AAAAAAAAB0      AAAAAAAAAAAA4    TRANSVERSE   2.430000   3.300000   NO       0        0.000000   YES

AAAAAAAAAAAAAAAC4 AAAAAAAAD2      AAAAAAAAAAAA5    TRANSVERSE   7.050000   3.330000   NO       0        0.000000   YES

AAAAAAAAAAAAAAAC5 AAAAAAAAB2      AAAAAAAAAAAAE1   TRANSVERSE   5          3          YES      0        0          YES

AAAAAAAAAAAAAAAAD4 AAAAAAAAAAAAE2 AAAAAAAAAAAC5    SIDEFLOW     6.29       3.33       NO       0        0          YES

AAAAAAAAAAAAAAAAAAA2 AAAAAAAAAAAAA8 AAAAAAAAC1     TRANSVERSE   2.55       3          NO       0        0          YES

AAAAAAAAAAAAAAAAD5 AAAAAAAAAA8    AAAAAAAAAAAAB0   TRANSVERSE   1.670000   3.300000   NO       0        0.000000   YES

AAAAAAAAAAAAAAAAD6 AAAAAAAAAA9    AAAAAAAAAAAAB2   TRANSVERSE   1.935000   3.300000   NO       0        0.000000   YES

AAAAAAAAAAAAAAAC6 AAAAAAAAB8      AAAAAAAAAAAA7    TRANSVERSE   3.460000   3.330000   NO       0        0.000000   YES

AAAAAAAAAAAAAAAC7 AAAAAAAAD3      AAAAAAAAAAAAB4   SIDEFLOW     6.31       3.33       NO       0        0          YES

AAAAAAAAAAAAAAAC8 AAAAAAAAD4      AAAAAAAAAAAA8    TRANSVERSE   10.860000  3.330000   NO       0        0.000000   YES
AAAAAAAAAAAAAAAC9 AAAAAAAAD5      AAAAAAAAAAAAB7   SIDEFLOW     6.07       3.33       NO       0        0          YES

AAAAAAAAAAAAAAAC- AAAAAAAAD6      AAAAAAAAAAAA9    SIDEFLOW     5.790000   3.330000   NO       0        0.000000   YES

AAAAAAAAAAAAAAAAD7 AAAAAAAAAB0    AAAAAAAAAAAAAD0  SIDEFLOW     1.5        3.33       NO       0        0          YES

AAAAAAAAAAAAAAAC_ AAAAAAAAD7      AAAAAAAAAAAA-    SIDEFLOW     6.93       3.33       NO       0        0          YES

AAAAAAAAAAAAAAAD0 AAAAAAAAB_      AAAAAAAAAAAAB_   SIDEFLOW     0.340000   3.000000   NO       0        0.000000   YES

AAAAAAAAAAAAAAAAD8 AAAAAAAAC0     AAAAAAAAAAAAC2   TRANSVERSE   6.500000   3.330000   NO       0        0.000000   YES

AAAAAAAAAAAAAAAAAAAAA6 AAAAAAAAD8 AAAAAAAAAAAC2    SIDEFLOW     6.500000   3.000000   NO       0        0.000000   YES

AAAAAAAAAAAAAAAAD9 AAAAAAAAD9     AAAAAAAAAAAAC5   TRANSVERSE   1.67       3          NO       0        0          YES

AAAAAAAAAAAAAAAD1 AAAAAAAAD9      AAAAAAAAAAAAC6   SIDEFLOW     0.92       3.3        NO       0        0          YES


AAAAAAAAAAAAAAAAD- AAAAAAAAAAAAC- AAAAAAAAAAAAC9   SIDEFLOW     9.95       3          NO       0        0          YES

AAAAAAAAAAAAAAAAD_ AAAAAAAAAAAAC- AAAAAAAAAAAAC_   TRANSVERSE   9.750000   3.000000   NO       0        0.000000   YES

AAAAAAAAAAAAAAAAE0 AAAAAAAAAAAAD0 AAAAAAAAAAAAD1   TRANSVERSE   0.800000   2.600000   NO       0        0.000000   YES

AAAAAAAAAAAAAAAAE1 AAAAAAAAC2     AAAAAAAAAAAAE3   SIDEFLOW     2.500000   3.000000   NO       0        0.000000   YES

AAAAAAAAAAAAAAAAE2 AAAAAAAAAAAAE3 AAAAAAAAAAAAD3   TRANSVERSE   2.800000   3.330000   NO       0        0.000000   YES

AAAAAAAAAAAAAAAAE3 AAAAAAAAAAAAE3 AAAAAAAAAAAAA9   SIDEFLOW     5.300000   3.330000   NO       0        0.000000   YES

AAAAAAAAAAAAAAAAE4 AAAAAAAAC3     AAAAAAAAAAAAE4   TRANSVERSE   1.500000   3.000000   NO       0        0.000000   YES

AAAAAAAAAAAAAAAAE5 AAAAAAAAAAAAE4 AAAAAAAAAAAAD4   TRANSVERSE   6.100000   3.330000   NO       0        0.000000   YES

AAAAAAAAAAAAAAAAE6 AAAAAAAAAAAAE4 AAAAAAAAAAAAD5   SIDEFLOW     8.300000   3.330000   NO       0        0.000000   YES

AAAAAAAAAAAAAAAAE7 AAAAAAAAC4     AAAAAAAAAAAAE5   SIDEFLOW     1.750000   3.000000   NO       0        0.000000   YES

AAAAAAAAAAAAAAAAE8 AAAAAAAAAAAAE5 AAAAAAAAAAAAD7   TRANSVERSE   3.200000   3.330000   NO       0        0.000000   YES

AAAAAAAAAAAAAAAAE9 AAAAAAAAAAAAE5 AAAAAAAAAAAAD8   SIDEFLOW     5.500000   3.330000   NO       0        0.000000   YES
AAAAAAAB2        AAAAAAAABE2      AAAAAAA-         TRANSVERSE   3.43       3          NO       0        0          YES

AAAAAAAB3        AAAAAAAAA8       AAAAAAAAAAAB_    TRANSVERSE   7.000000   3.330000   YES      0        0.000000   YES

[OUTLETS]



AAAAAAAAAAAE4    AAAAAAAAAO7      AAAAAAAAAAAAA7   0          TABULAR/HEAD     AAAAAAAAAAAAAAAAAAAAAAAAAA0            NO

AAAAAAAAAAAE5    AAAAAAAAD3       AAAAAAAAAAAAAC5  0          TABULAR/HEAD     AAAAAAAAAAAAAAAAAAAAAAAAAA1            NO

AAAAAAAAAAAE6    AAAAAAAAD4       AAAAAAAAAAAAAC9  0          TABULAR/HEAD     AAAAAAAAAAAAAAAAAAAAAAAAAA2            NO
AAAAAAAAAAAE7    AAAAAAAAD7       AAAAAAAAAAAAAD2  0          TABULAR/HEAD     AAAAAAAAAAAAAAAAAAAAAAAAAA3            NO
AAAAAAAAAAE_     AAAAAAAAD5       AAAAAAAAAAAAB6   0          TABULAR/HEAD     AAAAAAAAAAAAAAAAAAAAAAAAA8            NO

[XSECTIONS]


AAAAAB5          ARCH         15.125           27         0          0          1          0
AAAAAAAABE3      RECT_CLOSED  11.75            17         0          0          1          0
AAAAL9           ARCH         15.5             27         0          0          1          0
AAAAL-           RECT_CLOSED  10.5             20         0          0          1          0
AAAAL_           CIRCULAR     4.5              0          0          0          1          0
AAAAM0           RECT_CLOSED  4                5          0          0          1          0
AAAAAAAAAAC0     RECT_CLOSED  10.5             80         0          0          1          0
AAAAAAAAAAAD_    RECT_CLOSED  5                72         0          0          1          0
A0               RECT_CLOSED  16               14         0          0          3          0
AAAAAAAAAAAAAAAA4 RECT_CLOSED 16               14         0          0          3          0
AAAAAAAAAAAAE8   CIRCULAR     5                0          0          0          1          0
AAAAAAAABE4      RECT_CLOSED  12.5             12.5       0          0          1          0
AAAAAAAABE5      TRAPEZOIDAL  18               65         1          1          1          0
AAAAAB6          RECT_CLOSED  10               10         0          0          6          0
AAA1             RECT_CLOSED  11.5             12         0          0          1          0
AAAAAAAA3        CIRCULAR     6                0          0          0          1          0
AAAAAAAAAAAAAAB1 CIRCULAR     1.167            0          0          0          1          0
AAAAM1           RECT_CLOSED  1.67             2.5        0          0          1          0
AAAAM2           RECT_CLOSED  11.75            17         0          0          1          0
AAAAAB7          ARCH         15.125           27         0          0          1          0
AAAAAAAAD_       RECT_CLOSED  4                3          0          0          1          0
AAAAAAAAE0       CIRCULAR     7                0          0          0          1          0
AAAAAAAAE1       CIRCULAR     2                8.25       0          0          1          0
AAAAAAAAE2       CIRCULAR     5                0          0          0          1          0
AAAAAAAAE3       CIRCULAR     5                0          0          0          1          0
AAAAAAAAE4       CIRCULAR     2.5              0          0          0          1          0
AAAAAAAAE5       CIRCULAR     2.5              0          0          0          1          0
AAAAAAAAE6       CIRCULAR     3.5              0          0          0          1          0
AAAAAAAAE7       CIRCULAR     3.5              0          0          0          1          0
AAAAAAAABE6      CIRCULAR     2.5              0          0          0          1          0
AAAAAAAABE7      CIRCULAR     1.25             0          0          0          1          0
AAAAAAAAE8       RECT_CLOSED  3                8          0          0          1          0
AAAAAAAAAAAAAAAAA5 CIRCULAR   1.5              0          0          0          1          0
AAAAAAAAAAAAAAAAA6 CIRCULAR   3                0          0          0          1          0
AAAAAAAAAAAAAAAAAAAAA4 RECT_OPEN 7             8.25       0          0          1          0
AAAAAAAAAAAAAAAAAA0 CIRCULAR  1.25             0          0          0          1          0
AAAAAAAAAAAAAAAAAA1 CIRCULAR  1.25             0          0          0          1          0
AAAAAAAAAAAAAAAAAA2 CIRCULAR  1.25             0          0          0          1          0
AAAAAAAAAAAAAAAAAA3 CIRCULAR  1.5              0          0          0          1          0
AAAAAAAAAAAAAAAAAA4 CIRCULAR  1.25             0          0          0          1          0
AAAAAAAAAAAAAAAAA7 CIRCULAR   2                0          0          0          1          0
AAAAAAAAAAAAAAAAAA5 CIRCULAR  1.25             0          0          0          1          0
AAAAAAAAAAAAAAAAAA6 CIRCULAR  1.25             0          0          0          1          0
AAAAAAAAAAAAAAAAAA7 CIRCULAR  1.25             0          0          0          1          0
AAAAAAAAAAAAAAAAAA8 CIRCULAR  2.5              0          0          0          1          0
AAAAAAAAAAAAAAAA5 CIRCULAR    4                0          0          0          1          0
AAAAAAAAAAAAAAAA6 CIRCULAR    3.5              108        0          0          1          0
AAAAAAAAAAAAAAAAA8 RECT_CLOSED 18.9            13.5       0          0          1          0
AAAAAAAAAAAAAAAAA9 RECT_CLOSED 4.57            9          0          0          1          0
AAAAAAAAAAAAAAAA7 CIRCULAR    2.5              0          0          0          1          0
AAAAAAAAAAAAAAAA8 CIRCULAR    3.5              0          0          0          1          0
AAAAAAAAAAAAAAAA9 RECT_CLOSED 5.5              18         0          0          1          0
AAAAAAAAAAAAAAAAA- CIRCULAR   4.5              0          0          0          1          0
AAAAAAAAAAAAAAAAA_ CIRCULAR   2                0          0          0          1          0
AAAAAAAAAAAAAE0  CIRCULAR     1.25             0          0          0          1          0
AAAAAAAAAAAAAAB2 RECT_CLOSED  2                5          0          0          1
AAAAAAA_         CIRCULAR     1.5              0          0          0          1
AAAAAAAA4        CIRCULAR     1.5              0          0          0          1
AAAAAAAA5        CIRCULAR     1.5              0          0          0          1
AAAAAAAA6        CIRCULAR     1.5              0          0          0          1
AAAAAAAA7        CIRCULAR     1.5              0          0          0          1
AAAAAAAA8        CIRCULAR     1.5              0          0          0          1
AAAAAAAA9        CIRCULAR     1.5              0          0          0          1
AAAAAAAA-        CIRCULAR     1.5              0          0          0          1
AAAAAAAABE8      FILLED_CIRCULAR 8             3          0          0          1          0
AAAAAAAABE9      EGG          3                3          0          0          1          0
AAAAAAAABE-      EGG          4                4          0          0          1          0
AAAAAAAABE_      EGG          4                4          0          0          1          0
AAAAAAAABF0      RECT_CLOSED  3                5          0          0          1          0
AAAAAAAABF1      EGG          3.5              3.5        0          0          1          0
AAAAAAAABF2      EGG          3.5              3.5        0          0          1          0
AAAAAAAABF3      CIRCULAR     5.25             0          0          0          1          0
AAAAAAAABF4      CIRCULAR     5.25             0          0          0          1          0
AAAAAAAABF5      CIRCULAR     5.25             0          0          0          1          0
AAAAAAAABF6      RECT_CLOSED  3                5          0          0          1          0
AAAAAAAABF7      EGG          4                4          0          0          1          0
AAAAAAAABF8      EGG          3.5              3.5        0          0          1          0
AAAAAAAABF9      CIRCULAR     1.25             0          0          0          1          0
AAAAAAAABF-      CIRCULAR     1.25             0          0          0          1          0
AAAAAAAABF_      CIRCULAR     1.25             0          0          0          1          0
AAAAAAAABG0      CIRCULAR     3.5              0          0          0          1          0
AAAAAAAABG1      CIRCULAR     3.5              0          0          0          1          0
AAAAAAAABG2      CIRCULAR     1.25             0          0          0          1          0
AAAAAAAABG3      CIRCULAR     1.25             0          0          0          1          0
AAAAAAAABG4      RECT_CLOSED  11.75            15.5       0          0          1          0
AAAAAAAABG5      RECT_CLOSED  11.75            15.5       0          0          1          0
AAAAAAAABG6      CIRCULAR     0.833            0          0          0          1          0
AAAAAAAABG7      CIRCULAR     0.667            0          0          0          1          0
AAAAAAAABG8      CIRCULAR     1.5              0          0          0          1          0
AAAAAAAAAAC1     CIRCULAR     3.5              0          0          0          1          0
AAAAAAAABG9      CIRCULAR     2                0          0          0          1          0
AAAAAAAABG-      CIRCULAR     2                0          0          0          1          0
AAAAAAAABG_      CIRCULAR     7.5              0          0          0          1          0
AAAAAAAABH0      CIRCULAR     2                0          0          0          1          0
AAAAAAAABH1      CIRCULAR     2                0          0          0          1          0
AAAAAAAABH2      CIRCULAR     2.5              0          0          0          1          0
AAAAAAAABH3      CIRCULAR     2.5              0          0          0          1          0
AAAAAAAABH4      CIRCULAR     2.5              0          0          0          1          0
AAAAAAAABH5      CIRCULAR     2.5              0          0          0          1          0
AAAAAAAABH6      CIRCULAR     2.5              0          0          0          1          0
AAAAAAAABH7      CIRCULAR     2.5              0          0          0          1          0
AAAAAAAABH8      CIRCULAR     2.5              0          0          0          1          0
AAAAAAAABH9      CIRCULAR     1                0          0          0          1          0
AAAAAAAABH-      CIRCULAR     2                0          0          0          1          0
AAAAAAAABH_      CIRCULAR     2                0          0          0          1          0
AAAAAAAABI0      CIRCULAR     1                0          0          0          1          0
AAAAAAAABI1      CIRCULAR     1                0          0          0          1          0
AAAAAAAABI2      CIRCULAR     1                0          0          0          1          0
AAAAAAAABI3      CIRCULAR     1                0          0          0          1          0
AAAAAAAABI4      CIRCULAR     7.5              0          0          0          1          0
AAAAAAAABI5      CIRCULAR     7.5              0          0          0          1          0
AAAAAAAABI6      CIRCULAR     5.5              0          0          0          1          0
AAAAAAAABI7      CIRCULAR     6.5              0          0          0          1          0
AAAAAAAABI8      CIRCULAR     6.5              0          0          0          1          0
AAAAAAAABI9      CIRCULAR     6.5              0          0          0          1          0
AAAAAAAABI-      CIRCULAR     6.5              0          0          0          1          0
AAAAAAAABI_      CIRCULAR     2                48         0          0          1          0
AAAAAAAABJ0      CIRCULAR     2.5              0          0          0          1          0
AAAAAAAABJ1      CIRCULAR     2                48         0          0          1          0
AAAAAAAABJ2      CIRCULAR     2                48         0          0          1          0
AAAAAAAABJ3      CIRCULAR     4.5              0          0          0          1          0
AAAAAAAABJ4      CIRCULAR     2                48         0          0          1          0
AAAAAAAABJ5      CIRCULAR     5                0          0          0          1          0
AAAAAAAABJ6      CIRCULAR     5                0          0          0          1          0
AAAAAAAABJ7      CIRCULAR     2.5              0          0          0          1          0
AAAAAAAABJ8      CIRCULAR     2.5              0          0          0          1          0
AAAAAAAABJ9      CIRCULAR     2.5              0          0          0          1          0
AAAAAAAABJ-      CIRCULAR     2.5              0          0          0          1          0
AAAAAAAABJ_      CIRCULAR     2.5              0          0          0          1          0
AAAAAAAABK0      CIRCULAR     5                300        0          0          1          0
AAAAAAAAAAC2     CIRCULAR     5                300        0          0          1          0
AAAAAAAABK1      CIRCULAR     5                300        0          0          1          0
AAAAAAAABK2      CIRCULAR     2                48         0          0          1          0
AAAAAAAABK3      CIRCULAR     4.75             300        0          0          1          0
AAAAAAAABK4      CIRCULAR     5                0          0          0          1          0
AAAAAAAABK5      CIRCULAR     2.5              0          0          0          1          0
AAAAAAAABK6      CIRCULAR     2.5              0          0          0          1          0
AAAAAAAABK7      RECT_CLOSED  1.667            2.5        0          0          1          0
AAAAAAAABK8      CIRCULAR     5                0          0          0          1          0
AAAAAAAABK9      RECT_CLOSED  5.75             6          0          0          1          0
AAAAAAAABK-      RECT_CLOSED  5.75             6          0          0          1          0
AAAAAAAABK_      RECT_CLOSED  5.75             6          0          0          1          0
AAAAAAAABL0      RECT_CLOSED  5.75             6          0          0          1          0
AAAAAAAABL1      RECT_CLOSED  6.5              6.5        0          0          1          0
AAAAAAAABL2      RECT_CLOSED  6.5              6.5        0          0          1          0
AAAAAAAABL3      RECT_CLOSED  6.5              6.5        0          0          1          0
AAAAAAAABL4      RECT_CLOSED  10               20         0          0          1          0
AAAAAAAAAAAE0    RECT_CLOSED  10               20         0          0          1          0
AAAAAAAABL5      RECT_CLOSED  10               18         0          0          1          0
AAAAAAAABL6      CIRCULAR     6                0          0          0          1          0
AAAAAAAABL7      CIRCULAR     6                0          0          0          1          0
AAAAAAAABL8      RECT_CLOSED  10               18         0          0          1          0
AAAAAAAABL9      RECT_CLOSED  10               18         0          0          1          0
AAAAAAAABL-      RECT_CLOSED  10               18         0          0          1          0
AAAAAAAABL_      RECT_CLOSED  10               18         0          0          1          0
AAAAAAAABM0      RECT_CLOSED  10               18         0          0          1          0
AAAAAAAABM1      RECT_CLOSED  10               18         0          0          1          0
AAAAAAAABM2      RECT_CLOSED  10.5             20         0          0          1          0
AAAAAAAABM3      RECT_CLOSED  6.25             10         0          0          1          0
AAAAAAAABM4      RECT_CLOSED  10.5             20         0          0          1          0
AAAAAAAABM5      RECT_CLOSED  10.5             20         0          0          1          0
AAAAAAAABM6      RECT_CLOSED  10.5             20         0          0          1          0
AAAAAAAABM7      RECT_CLOSED  10.5             20         0          0          1          0
AAAAAAAABM8      RECT_CLOSED  10.5             20         0          0          1          0
AAAAAAAABM9      RECT_CLOSED  10.5             20         0          0          1          0
AAAAAAAABM-      RECT_CLOSED  10.5             20         0          0          1          0
AAAAAAAABM_      RECT_CLOSED  10               20         0          0          1          0
AAAAAAAABN0      RECT_CLOSED  10               20         0          0          1          0
AAAAAAAABN1      RECT_CLOSED  10               20         0          0          1          0
AAAAAAAABN2      RECT_CLOSED  10               20         0          0          1          0
AAAAAAAABN3      RECT_CLOSED  10               20         0          0          1          0
AAAAAAAABN4      RECT_CLOSED  10               20         0          0          1          0
AAAAAAAABN5      RECT_CLOSED  5                5          0          0          1          0
AAAAAAAABN6      RECT_CLOSED  10               20         0          0          1          0
AAAAAAAABN7      RECT_CLOSED  10               20         0          0          1          0
AAAAAAAABN8      RECT_CLOSED  10               20         0          0          1          0
AAAAAAAABN9      RECT_CLOSED  10               20         0          0          1          0
AAAAAAAABN-      RECT_CLOSED  10               20         0          0          1          0
AAAAAAAABN_      RECT_CLOSED  10               20         0          0          1          0
AAAAAAAAAAC3     RECT_CLOSED  10               20         0          0          1          0
AAAAAAAABO0      RECT_CLOSED  10               20         0          0          1          0
AAAAAAAABO1      RECT_CLOSED  10               20         0          0          1          0
AAAAAAAABO2      RECT_CLOSED  10               20         0          0          1          0
AAAAAAAABO3      RECT_CLOSED  10               20         0          0          1          0
AAAAAAAABO4      ARCH         15.125           27         0          0          1          0
AAAAAAAAAAC4     ARCH         15.125           27         0          0          1          0
AAAAAAAABO5      CIRCULAR     3                0          0          0          1          0
AAAAAAAABO6      CIRCULAR     3                0          0          0          1          0
AAAAAAAABO7      CIRCULAR     2.5              0          0          0          1          0
AAAAAAAABO8      CIRCULAR     2.5              0          0          0          1          0
AAAAAAAABO9      CIRCULAR     4                0          0          0          1          0
AAAAAAAABO-      CIRCULAR     2                0          0          0          1          0
AAAAAAAABO_      RECT_CLOSED  4                5          0          0          1          0
AAAAAAAABP0      CIRCULAR     7                0          0          0          1          0
AAAAAAAABP1      RECT_CLOSED  4                5          0          0          1          0
AAAAAAAABP2      RECT_CLOSED  4                5          0          0          1          0
AAAAAAAABP3      RECT_CLOSED  4                5          0          0          1          0
AAAAAAAABP4      CIRCULAR     7                0          0          0          1          0
AAAAAAAABP5      CIRCULAR     7                0          0          0          1          0
AAAAAAAABP6      RECT_CLOSED  1.67             2.5        0          0          1          0
AAAAAAAABP7      RECT_CLOSED  1.667            2.5        0          0          1          0
AAAAAAAABP8      RECT_CLOSED  1.67             2.5        0          0          1          0
AAAAAAAABP9      CIRCULAR     7                0          0          0          1          0
AAAAAAAABP-      CIRCULAR     2                0          0          0          1          0
AAAAAAAABP_      CIRCULAR     3.5              0          0          0          1          0
AAAAAAAABQ0      CIRCULAR     3.5              0          0          0          1          0
AAAAAAAABQ1      CIRCULAR     3.5              0          0          0          1          0
AAAAAAAABQ2      CIRCULAR     3.5              0          0          0          1          0
AAAAAAAABQ3      CIRCULAR     3.5              0          0          0          1          0
AAAAAAAABQ4      CIRCULAR     1                0          0          0          1          0
AAAAAAAABQ5      CIRCULAR     1                0          0          0          1          0
AAAAAAAABQ6      CIRCULAR     2.5              0          0          0          1          0
AAAAAAAABQ7      CIRCULAR     1                0          0          0          1          0
AAAAAAAABQ8      CIRCULAR     2.5              0          0          0          1          0
AAAAAAAABQ9      CIRCULAR     1                0          0          0          1          0
AAAAAAAABQ-      CIRCULAR     2.5              0          0          0          1          0
AAAAAAAABQ_      CIRCULAR     3                0          0          0          1          0
AAAAAAAABR0      CIRCULAR     2.5              0          0          0          1          0
AAAAAAAABR1      CIRCULAR     1                0          0          0          1          0
AAAAAAAABR2      CIRCULAR     1                0          0          0          1          0
AAAAAAAABR3      CIRCULAR     3                0          0          0          1          0
AAAAAAAABR4      CIRCULAR     3                0          0          0          1          0
AAAAAAAABR5      CIRCULAR     3.5              0          0          0          1          0
AAAAAAAABR6      CIRCULAR     3.5              0          0          0          1          0
AAAAAAAABR7      CIRCULAR     1                0          0          0          1          0
AAAAAAAABR8      CIRCULAR     1                0          0          0          1          0
AAAAAAAABR9      CIRCULAR     1                0          0          0          1          0
AAAAAAAABR-      CIRCULAR     1                0          0          0          1          0
AAAAAAAABR_      CIRCULAR     1                0          0          0          1          0
AAAAAAAABS0      CIRCULAR     1                0          0          0          1          0
AAAAAAAABS1      CIRCULAR     3                0          0          0          1          0
AAAAAAAABS2      CIRCULAR     4                0          0          0          1          0
AAAAAAAABS3      CIRCULAR     4                0          0          0          1          0
AAAAAAAABS4      CIRCULAR     4                0          0          0          1          0
AAAAAAAABS5      CIRCULAR     3.5              0          0          0          1          0
AAAAAAAABS6      CIRCULAR     3.5              0          0          0          1          0
AAAAAAAABS7      CIRCULAR     4.5              0          0          0          1          0
AAAAAAAABS8      CIRCULAR     4                0          0          0          1          0
AAAAAAAABS9      CIRCULAR     4                0          0          0          1          0
AAAAAAAABS-      CIRCULAR     4.5              0          0          0          1          0
AAAAAAAABS_      CIRCULAR     4.5              0          0          0          1          0
AAAAAAAABT0      CIRCULAR     2                0          0          0          1          0
AAAAAAAABT1      CIRCULAR     2                0          0          0          1          0
AAAAAAAABT2      CIRCULAR     2.5              0          0          0          1          0
AAAAAAAABT3      CIRCULAR     2.5              0          0          0          1          0
AAAAAAAABT4      CIRCULAR     2.5              0          0          0          1          0
AAAAAAAABT5      CIRCULAR     2.5              0          0          0          1          0
AAAAAAAABT6      CIRCULAR     2                0          0          0          1          0
AAAAAAAABT7      CIRCULAR     2                0          0          0          1          0
AAAAAAAABT8      CIRCULAR     2                0          0          0          1          0
AAAAAAAABT9      CIRCULAR     2.5              0          0          0          1          0
AAAAAAAABT-      CIRCULAR     2.5              0          0          0          1          0
AAAAAAAABT_      CIRCULAR     2.5              0          0          0          1          0
AAAAAAAABU0      CIRCULAR     2.5              0          0          0          1          0
AAAAAAAABU1      CIRCULAR     2.5              0          0          0          1          0
AAAAAAAABU2      CIRCULAR     2.5              0          0          0          1          0
AAAAAAAABU3      CIRCULAR     2.5              0          0          0          1          0
AAAAAAAABU4      CIRCULAR     1                0          0          0          1          0
AAAAAAAABU5      CIRCULAR     1                0          0          0          1          0
AAAAAAAABU6      CIRCULAR     4                0          0          0          1          0
AAAAAAAABU7      CIRCULAR     2.5              0          0          0          1          0
AAAAAAAABU8      CIRCULAR     4                0          0          0          1          0
AAAAAAAABU9      CIRCULAR     2                0          0          0          1          0
AAAAAAAABU-      CIRCULAR     1.67             0          0          0          1          0
AAAAAAAABU_      CIRCULAR     4.5              0          0          0          1          0
AAAAAAAABV0      CIRCULAR     4.5              0          0          0          1          0
AAAAAAAABV1      CIRCULAR     4.5              0          0          0          1          0
AAAAAAAABV2      CIRCULAR     4                0          0          0          1          0
AAAAAAAABV3      CIRCULAR     2                0          0          0          1          0
AAAAAAAABV4      CIRCULAR     2.5              0          0          0          1          0
AAAAAAAABV5      CIRCULAR     5                0          0          0          1          0
AAAAAAAABV6      CIRCULAR     2.5              0          0          0          1          0
AAAAAAAABV7      CIRCULAR     2.5              0          0          0          1          0
AAAAAAAABV8      CIRCULAR     2.5              0          0          0          1          0
AAAAAAAABV9      CIRCULAR     2.5              0          0          0          1          0
AAAAAAAABV-      CIRCULAR     2.5              0          0          0          1          0
AAAAAAAABV_      CIRCULAR     2.5              0          0          0          1          0
AAAAAAAABW0      CIRCULAR     2.5              0          0          0          1          0
AAAAAAAABW1      CIRCULAR     2.5              0          0          0          1          0
AAAAAAAABW2      CIRCULAR     2.5              0          0          0          1          0
AAAAAAAABW3      CIRCULAR     2.5              0          0          0          1          0
AAAAAAAABW4      CIRCULAR     2.5              0          0          0          1          0
AAAAAAAABW5      CIRCULAR     2                0          0          0          1          0
AAAAAAAABW6      CIRCULAR     2                0          0          0          1          0
AAAAAAAABW7      CIRCULAR     3.5              0          0          0          1          0
AAAAAAAABW8      CIRCULAR     0.667            0          0          0          1          0
AAAAAAAABW9      CIRCULAR     2.5              0          0          0          1          0
AAAAAAAABW-      CIRCULAR     2.5              0          0          0          1          0
AAAAAAAABW_      CIRCULAR     3                0          0          0          1          0
AAAAAAAABX0      CIRCULAR     3.5              0          0          0          1          0
AAAAAAAABX1      CIRCULAR     1.25             0          0          0          1          0
AAAAAAAABX2      CIRCULAR     3                0          0          0          1          0
AAAAAAAABX3      CIRCULAR     3                0          0          0          1          0
AAAAAAAABX4      CIRCULAR     1.25             0          0          0          1          0
AAAAAAAABX5      CIRCULAR     1.25             0          0          0          1          0
AAAAAAAABX6      CIRCULAR     1.25             0          0          0          1          0
AAAAAAAABX7      CIRCULAR     1.25             0          0          0          1          0
AAAAAAAABX8      CIRCULAR     1.25             0          0          0          1          0
AAAAAAAABX9      CIRCULAR     1.25             0          0          0          1          0
AAAAAAAABX-      CIRCULAR     1.25             0          0          0          1          0
AAAAAAAABX_      CIRCULAR     1.25             0          0          0          1          0
AAAAAAAABY0      CIRCULAR     1.25             0          0          0          1          0
AAAAAAAABY1      CIRCULAR     3                0          0          0          1          0
AAAAAAAABY2      CIRCULAR     3                0          0          0          1          0
AAAAAAAABY3      CIRCULAR     3                0          0          0          1          0
AAAAAAAABY4      CIRCULAR     3                0          0          0          1          0
AAAAAAAABY5      CIRCULAR     6                0          0          0          1          0
AAAAAAAAAAC5     CIRCULAR     5.5              0          0          0          1          0
AAAAAAAABY6      CIRCULAR     5.5              0          0          0          1          0
AAAAAAAABY7      CIRCULAR     2                0          0          0          1          0
AAAAAAAABY8      CIRCULAR     4.5              0          0          0          1          0
AAAAAAAABY9      CIRCULAR     4.75             0          0          0          1          0
AAAAAAAABY-      CIRCULAR     4.75             0          0          0          1          0
AAAAAAAABY_      CIRCULAR     3                0          0          0          1          0
AAAAAAAABZ0      CIRCULAR     1.25             0          0          0          1          0
AAAAAAAABZ1      CIRCULAR     6                0          0          0          1          0
AAAAAAAABZ2      CIRCULAR     6                0          0          0          1          0
AAAAAAAABZ3      CIRCULAR     6                0          0          0          1          0
AAAAAAAABZ4      CIRCULAR     1.5              0          0          0          1          0
AAAAAAAABZ5      CIRCULAR     1.5              0          0          0          1          0
AAAAAAAABZ6      CIRCULAR     1.5              0          0          0          1          0
AAAAAAAABZ7      CIRCULAR     1.5              0          0          0          1          0
AAAAAAAABZ8      CIRCULAR     4                0          0          0          1
AAAAAAAABZ9      CIRCULAR     0.667            0          0          0          1          0
AAAAAAAABZ-      CIRCULAR     0.667            0          0          0          1          0
AAAAAAAABZ_      CIRCULAR     0.667            0          0          0          1          0
AAAAAAAAB0A      CIRCULAR     0.667            0          0          0          1          0
AAAAAAAAB0B      CIRCULAR     0.667            0          0          0          1          0
AAAAAAAAB0C      CIRCULAR     0.667            0          0          0          1          0
AAAAAAAAB0D      CIRCULAR     0.667            0          0          0          1          0
AAAAAAAAB0E      CIRCULAR     1.25             0          0          0          1          0
AAAAAAAAB0F      CIRCULAR     1.25             0          0          0          1          0
AAAAAAAAB0G      CIRCULAR     1.25             0          0          0          1          0
AAAAAAAAB0H      CIRCULAR     1.25             0          0          0          1          0
AAAAAAAAB0I      CIRCULAR     1.25             0          0          0          1
AAAAAAAAB0J      CIRCULAR     1.25             0          0          0          1
AAAAAAAAB0K      CIRCULAR     1.25             0          0          0          1          0
AAAAAAAAB0L      CIRCULAR     1.25             0          0          0          1          0
AAAAAAAAB0M      CIRCULAR     1.25             0          0          0          1          0
AAAAAAAAB0N      CIRCULAR     1                0          0          0          1          0
AAAAAAAAB0O      CIRCULAR     1                0          0          0          1          0
AAAAAAAAB0P      CIRCULAR     1                0          0          0          1          0
AAAAAAAAB0Q      CIRCULAR     1                0          0          0          1          0
AAAAAAAAB0R      CIRCULAR     4                0          0          0          1          0
AAAAAAAAB0S      CIRCULAR     5                0          0          0          1          0
AAAAAAAAB0T      CIRCULAR     5                0          0          0          1          0
AAAAAAAAB0U      CIRCULAR     4.5              0          0          0          1          0
AAAAAAAAB0V      CIRCULAR     5                0          0          0          1          0
AAAAAAAAB0W      CIRCULAR     5                0          0          0          1          0
AAAAAAAAB0X      CIRCULAR     5                0          0          0          1          0
AAAAAAAAB0Y      CIRCULAR     5                0          0          0          1          0
AAAAAAAAB0Z      CIRCULAR     3.5              0          0          0          1          0
AAAAAAAAB00      CIRCULAR     3.5              0          0          0          1          0
AAAAAAAAB01      CIRCULAR     4                0          0          0          1          0
AAAAAAAAB02      CIRCULAR     1.667            0          0          0          1          0
AAAAAAAAB03      CIRCULAR     4                0          0          0          1          0
AAAAAAAAB04      CIRCULAR     3.5              0          0          0          1          0
AAAAAAAAB05      CIRCULAR     2.5              0          0          0          1          0
AAAAAAAAB06      CIRCULAR     6                0          0          0          1          0
AAAAAAAAB07      CIRCULAR     2.5              0          0          0          1          0
AAAAAAAAB08      CIRCULAR     2.5              0          0          0          1          0
AAAAAAAAB09      CIRCULAR     2.5              0          0          0          1          0
AAAAAAAAB0-      CIRCULAR     5.5              0          0          0          1          0
AAAAAAAAB0_      CIRCULAR     2.5              0          0          0          1          0
AAAAAAAAB1A      CIRCULAR     6                0          0          0          1          0
AAAAAAAAB1B      CIRCULAR     2.5              0          0          0          1          0
AAAAAAAAB1C      CIRCULAR     6                0          0          0          1          0
AAAAAAAAB1D      CIRCULAR     6                0          0          0          1          0
AAAAAAAAB1E      CIRCULAR     6                0          0          0          1          0
AAAAAAAAB1F      CIRCULAR     2.5              0          0          0          1          0
AAAAAAAAB1G      CIRCULAR     2.5              0          0          0          1          0
AAAAAAAAB1H      CIRCULAR     2.5              0          0          0          1          0
AAAAAAAAB1I      CIRCULAR     2.5              0          0          0          1          0
AAAAAAAAB1J      CIRCULAR     2.5              0          0          0          1          0
AAAAAAAAB1K      CIRCULAR     5                0          0          0          1          0
AAAAAAAAB1L      CIRCULAR     6                0          0          0          1          0
AAAAAAAAB1M      CIRCULAR     6                0          0          0          1          0
AAAAAAAAB1N      CIRCULAR     5                0          0          0          1          0
AAAAAAAAB1O      CIRCULAR     5                0          0          0          1          0
AAAAAAAAB1P      CIRCULAR     6                0          0          0          1          0
AAAAAAAAB1Q      CIRCULAR     6                0          0          0          1          0
AAAAAAAAB1R      CIRCULAR     5                0          0          0          1          0
AAAAAAAAB1S      CIRCULAR     2                0          0          0          1          0
AAAAAAAAB1T      CIRCULAR     2                0          0          0          1          0
AAAAAAAAB1U      CIRCULAR     2                0          0          0          1          0
AAAAAAAAB1V      CIRCULAR     2.25             0          0          0          1          0
AAAAAAAAB1W      CIRCULAR     2                0          0          0          1          0
AAAAAAAAB1X      CIRCULAR     2                0          0          0          1          0
AAAAAAAAB1Y      CIRCULAR     2.25             0          0          0          1          0
AAAAAAAAB1Z      CIRCULAR     1                0          0          0          1          0
AAAAAAAAB10      CIRCULAR     4                0          0          0          1          0
AAAAAAAAAAC6     CIRCULAR     4.5              0          0          0          1          0
AAAAAAAAB11      CIRCULAR     4.5              0          0          0          1          0
AAAAAAAAB12      CIRCULAR     1.25             0          0          0          1          0
AAAAAAAAB13      CIRCULAR     1.25             0          0          0          1          0
AAAAAAAAB14      CIRCULAR     1.25             0          0          0          1          0
AAAAAAAAB15      CIRCULAR     4.5              0          0          0          1          0
AAAAAAAAB16      CIRCULAR     4.5              0          0          0          1          0
AAAAAAAAAAC7     CIRCULAR     4.5              0          0          0          1          0
AAAAAAAAB17      CIRCULAR     4.5              0          0          0          1          0
AAAAAAAAB18      CIRCULAR     4.5              0          0          0          1          0
AAAAAAAAB19      CIRCULAR     4.5              0          0          0          1          0
AAAAAAAAB1-      CIRCULAR     4.5              0          0          0          1          0
AAAAAAAAB1_      CIRCULAR     6                0          0          0          1          0
AAAAAAAAB2A      CIRCULAR     6                0          0          0          1          0
AAAAAAAAB2B      CIRCULAR     6                0          0          0          1          0
AAAAAAAAB2C      CIRCULAR     2.5              0          0          0          1          0
AAAAAAAAB2D      HORSESHOE    10               0          0          0          1          0
AAAAAAAAAAC8     HORSESHOE    10               0          0          0          1          0
AAAAAAAAB2E      CIRCULAR     10               0          0          0          1          0
AAAAAAAAB2F      HORSESHOE    10               0          0          0          1          0
AAAAAAAAB2G      HORSESHOE    10               0          0          0          1          0
AAAAAAAAB2H      HORSESHOE    10               0          0          0          1          0
AAAAAAAAB2I      HORSESHOE    10               0          0          0          1          0
AAAAAAAAB2J      CIRCULAR     4                0          0          0          1          0
AAAAAAAAB2K      CIRCULAR     5.5              0          0          0          1          0
AAAAAAAAB2L      CIRCULAR     5.5              0          0          0          1          0
AAAAAAAAB2M      CIRCULAR     1.5              0          0          0          1          0
AAAAAAAAB2N      CIRCULAR     1.5              0          0          0          1          0
AAAAAAAAB2O      CIRCULAR     1.5              0          0          0          1          0
AAAAAAAAB2P      CIRCULAR     5                0          0          0          1          0
AAAAAAAAAAC9     CIRCULAR     1.5              0          0          0          1          0
AAAAAAAAB2Q      CIRCULAR     1.5              0          0          0          1          0
AAAAAAAAB2R      CIRCULAR     5                0          0          0          1          0
AAAAAAAAB2S      CIRCULAR     3                0          0          0          1          0
AAAAAAAAB2T      CIRCULAR     3                0          0          0          1          0
AAAAAAAAB2U      CIRCULAR     3                0          0          0          1          0
AAAAAAAAB2V      CIRCULAR     1.25             0          0          0          1          0
AAAAAAAAB2W      CIRCULAR     1.25             0          0          0          1          0
AAAAAAAAB2X      CIRCULAR     5                0          0          0          1          0
AAAAAAAAB2Y      CIRCULAR     5                0          0          0          1          0
AAAAAAAAB2Z      CIRCULAR     5                0          0          0          1          0
AAAAAAAAB20      FILLED_CIRCULAR 8             2.25       0          0          1          0
AAAAAAAAB21      FILLED_CIRCULAR 8             1.25       0          0          1          0
AAAAAAAAB22      RECT_CLOSED  5                3          0          0          1          0
AAAAAAAAB23      RECT_CLOSED  5                3          0          0          1          0
AAAAAAAAB24      CIRCULAR     5                0          0          0          1          0
AAAAAAAAB25      RECT_CLOSED  3                3          0          0          1          0
AAAAAAAAB26      RECT_CLOSED  3                3          0          0          1          0
AAAAAAAAB27      RECT_CLOSED  3                3          0          0          1          0
AAAAAAAAB28      RECT_CLOSED  3                3          0          0          1          0
AAAAAAAAB29      RECT_CLOSED  3                3          0          0          1          0
AAAAAAAAB2-      RECT_CLOSED  3                3          0          0          1          0
AAAAAAAAB2_      CIRCULAR     1                0          0          0          1          0
AAAAAAAAB3A      EGG          2                2          0          0          1          0
AAAAAAAAB3B      CIRCULAR     2.5              0          0          0          1          0
AAAAAAAAB3C      CIRCULAR     2.5              0          0          0          1          0
AAAAAAAAB3D      CIRCULAR     2.5              0          0          0          1          0
AAAAAAAAB3E      CIRCULAR     2.5              0          0          0          1          0
AAAAAAAAB3F      EGG          1.75             0          0          0          1          0
AAAAAAAAB3G      RECT_CLOSED  5                3          0          0          1          0
AAAAAAAAB3H      RECT_CLOSED  5                4          0          0          1          0
AAAAAAAAB3I      CIRCULAR     5                0          0          0          1          0
AAAAAAAAB3J      CIRCULAR     5                0          0          0          1          0
AAAAAAAAB3K      CIRCULAR     4                0          0          0          1          0
AAAAAAAAB3L      CIRCULAR     1.25             0          0          0          1          0
AAAAAAAAB3M      CIRCULAR     1.25             0          0          0          1          0
AAAAAAAAB3N      CIRCULAR     1.25             0          0          0          1          0
AAAAAAAAB3O      CIRCULAR     3                0          0          0          1          0
AAAAAAAAB3P      CIRCULAR     5                0          0          0          1          0
AAAAAAAAB3Q      CIRCULAR     5                0          0          0          1          0
AAAAAAAAB3R      CIRCULAR     5                0          0          0          1          0
AAAAAAAAB3S      CIRCULAR     5                0          0          0          1          0
AAAAAAAAB3T      CIRCULAR     5                0          0          0          1          0
AAAAAAAAB3U      CIRCULAR     5                0          0          0          1          0
AAAAAAAAB3V      CIRCULAR     5                0          0          0          1          0
AAAAAAAAB3W      CIRCULAR     5                0          0          0          1          0
AAAAAAAAB3X      HORSESHOE    9.5              0          0          0          1          0
AAAAAAAAAAC-     RECT_CLOSED  10.5             12         0          0          1          0
AAAAAAAAAAC_     RECT_CLOSED  10.5             12         0          0          1          0
AAAAAAAAAAD0     RECT_CLOSED  10.5             12.5       0          0          1          0
AAAAAAAAB3Y      RECT_CLOSED  10.5             18         0          0          1          0
AAAAAAAAAAD1     RECT_CLOSED  10.5             18         0          0          1          0
AAAAAAAAB3Z      ARCH         9                15         0          0          1          0
AAAAAAAAB30      ARCH         9                15         0          0          1          0
AAAAAAAAB31      RECT_CLOSED  9                9.5        0          0          1          0
AAAAAAAAB32      RECT_CLOSED  9                9.5        0          0          1          0
AAAAAAAAB33      RECT_CLOSED  10.5             18         0          0          1          0
AAAAAAAAB34      RECT_CLOSED  15               18         0          0          1          0
AAAAAAAAB35      RECT_CLOSED  10.5             20         0          0          1          0
AAAAAAAAB36      RECT_CLOSED  9                9.5        0          0          1          0
AAAAAAAAB37      ARCH         10.5             18.6       0          0          1          0
AAAAAAAAB38      ARCH         10.5             18.6       0          0          1          0
AAAAAAAAB39      ARCH         9                15         0          0          1          0
AAAAAAAAB3-      CIRCULAR     5                0          0          0          1          0
AAAAAAAAB3_      ARCH         10.5             18.6       0          0          1          0
AAAAAAAAB4A      RECT_CLOSED  4                9          0          0          1          0
AAAAAAAAB4B      CIRCULAR     9                0          0          0          1          0
AAAAAAAAB4C      CIRCULAR     9                2520       0          0          1          0
AAAAAAAAAAD2     CIRCULAR     9                0          0          0          1          0
AAAAAAAAB4D      CIRCULAR     6.5              0          0          0          1          0
AAAAAAAAB4E      CIRCULAR     6.5              0          0          0          1          0
AAAAAAAAB4F      CIRCULAR     4                0          0          0          1          0
AAAAAAAAB4G      CIRCULAR     4                0          0          0          1          0
AAAAAAAAB4H      CIRCULAR     9                0          0          0          1          0
AAAAAAAAB4I      HORSESHOE    10               0          0          0          1          0
AAAAAAAAB4J      CIRCULAR     9                0          0          0          1          0
AAAAAAAAB4K      HORSESHOE    10               0          0          0          1          0
AAAAAAAAAAD3     HORSESHOE    11               0          0          0          1          0
AAAAAAAAB4L      HORSESHOE    10               0          0          0          1          0
AAAAAAAAB4M      CIRCULAR     9                2520       0          0          1          0
AAAAAAAAB4N      RECT_CLOSED  8                12         0          0          1          0
AAAAAAAAB4O      RECT_CLOSED  8                12         0          0          1          0
AAAAAAAAB4P      RECT_CLOSED  6.5              6.5        0          0          1          0
AAAAAAAAB4Q      HORSESHOE    10               0          0          0          1          0
AAAAAAAAB4R      ARCH         15.125           27         0          0          1          0
AAAAAAAAB4S      ARCH         16.25            29         0          0          1          0
AAAAAAAAB4T      RECT_CLOSED  5                5          0          0          1          0
AAAAAAAAB4U      RECT_CLOSED  5                5          0          0          1          0
AAAAAAAAB4V      RECT_CLOSED  5                5          0          0          1          0
AAAAAAAAB4W      RECT_CLOSED  5                5          0          0          1          0
AAAAAAAAB4X      CIRCULAR     5                0          0          0          1          0
AAAAAAAAB4Y      CIRCULAR     5                0          0          0          1          0
AAAAAAAAB4Z      RECT_CLOSED  2                3          0          0          1          0
AAAAAAAAB40      CIRCULAR     2.5              0          0          0          1          0
AAAAAAAAB41      CIRCULAR     4.5              0          0          0          1          0
AAAAAAAAB42      CIRCULAR     2                0          0          0          1          0
AAAAAAAAB43      CIRCULAR     4.5              0          0          0          1          0
AAAAAAAAB44      CIRCULAR     2                0          0          0          1          0
AAAAAAAAB45      CIRCULAR     2                0          0          0          1          0
AAAAAAAAB46      CIRCULAR     2                0          0          0          1          0
AAAAAAAAB47      CIRCULAR     2                0          0          0          1          0
AAAAAAAAB48      CIRCULAR     2                0          0          0          1          0
AAAAAAAAB49      CIRCULAR     2                0          0          0          1          0
AAAAAAAAB4-      CIRCULAR     2                0          0          0          1          0
AAAAAAAAB4_      CIRCULAR     2                0          0          0          1          0
AAAAAAAAB5A      CIRCULAR     2                0          0          0          1          0
AAAAAAAAB5B      CIRCULAR     2                0          0          0          1          0
AAAAAAAAB5C      CIRCULAR     2                0          0          0          1          0
AAAAAAAAB5D      CIRCULAR     0.667            0          0          0          1          0
AAAAAAAAB5E      CIRCULAR     4.5              0          0          0          1          0
AAAAAAAAB5F      CIRCULAR     3                0          0          0          1          0
AAAAAAAAB5G      CIRCULAR     0.667            0          0          0          1          0
AAAAAAAAB5H      CIRCULAR     7                0          0          0          1          0
AAAAAAAAB5I      CIRCULAR     1.5              0          0          0          1          0
AAAAAAAAB5J      CIRCULAR     1.5              0          0          0          1          0
AAAAAAAAB5K      CIRCULAR     1                0          0          0          1          0
AAAAAAAAB5L      CIRCULAR     2                0          0          0          1          0
AAAAAAAAB5M      CIRCULAR     3.5              0          0          0          1          0
AAAAAAAAB5N      CIRCULAR     5.75             0          0          0          1          0
AAAAAAAAB5O      CIRCULAR     3                0          0          0          1          0
AAAAAAAAB5P      CIRCULAR     6                0          0          0          1          0
AAAAAAAAB5Q      CIRCULAR     6                0          0          0          1          0
AAAAAAAAB5R      CIRCULAR     3                0          0          0          1          0
AAAAAAAAB5S      CIRCULAR     3                0          0          0          1          0
AAAAAAAAB5T      CIRCULAR     6                0          0          0          1          0
AAAAAAAAB5U      CIRCULAR     6.5              0          0          0          1          0
AAAAAAAAB5V      CIRCULAR     10               0          0          0          1          0
AAAAAAAAB5W      CIRCULAR     10               0          0          0          1          0
AAAAAAAAB5X      CIRCULAR     9                0          0          0          1          0
AAAAAAAAB5Y      CIRCULAR     9                0          0          0          1          0
AAAAAAAAB5Z      HORSESHOE    10               0          0          0          1          0
AAAAAAAAB50      CIRCULAR     9                0          0          0          1          0
AAAAAAAAB51      HORSESHOE    10               0          0          0          1          0
AAAAAAAAB52      CIRCULAR     9                0          0          0          1          0
AAAAAAAAB53      CIRCULAR     5.5              0          0          0          1          0
AAAAAAAAB54      CIRCULAR     7                0          0          0          1          0
AAAAAAAAB55      CIRCULAR     10               0          0          0          1          0
AAAAAAAAB56      CIRCULAR     9                0          0          0          1          0
AAAAAAAAB57      CIRCULAR     5.5              0          0          0          1          0
AAAAAAAAB58      CIRCULAR     7                0          0          0          1          0
AAAAAAAAB59      CIRCULAR     7.5              0          0          0          1          0
AAAAAAAAB5-      CIRCULAR     2                0          0          0          1          0
AAAAAAAAB5_      CIRCULAR     7                0          0          0          1          0
AAAAAAAAB6A      CIRCULAR     10               0          0          0          1          0
AAAAAAAAB6B      CIRCULAR     10               0          0          0          1          0
AAAAAAAAB6C      CIRCULAR     4                0          0          0          1          0
AAAAAAAAB6D      CIRCULAR     6                0          0          0          1          0
AAAAAAAAB6E      CIRCULAR     7                0          0          0          1          0
AAAAAAAAB6F      CIRCULAR     2                0          0          0          1          0
AAAAAAAAB6G      CIRCULAR     4                0          0          0          1          0
AAAAAAAAB6H      CIRCULAR     6                0          0          0          1          0
AAAAAAAAB6I      CIRCULAR     6                0          0          0          1          0
AAAAAAAAB6J      CIRCULAR     7                0          0          0          1          0
AAAAAAAAB6K      CIRCULAR     1.25             0          0          0          1          0
AAAAAAAAB6L      CIRCULAR     1                0          0          0          1          0
AAAAAAAAB6M      CIRCULAR     3.5              0          0          0          1          0
AAAAAAAAB6N      CIRCULAR     3                0          0          0          1          0
AAAAAAAAB6O      CIRCULAR     4                0          0          0          1          0
AAAAAAAAB6P      CIRCULAR     4                0          0          0          1          0
AAAAAAAAB6Q      CIRCULAR     4                0          0          0          1          0
AAAAAAAAB6R      CIRCULAR     2.5              0          0          0          1          0
AAAAAAAAB6S      CIRCULAR     5.75             0          0          0          1          0
AAAAAAAAB6T      CIRCULAR     4                0          0          0          1          0
AAAAAAAAB6U      CIRCULAR     6                0          0          0          1          0
AAAAAAAAB6V      CIRCULAR     5.75             0          0          0          1          0
AAAAAAAAB6W      CIRCULAR     5.75             0          0          0          1          0
AAAAAAAAB6X      CIRCULAR     1.5              0          0          0          1          0
AAAAAAAAB6Y      CIRCULAR     1.5              0          0          0          1          0
AAAAAAAAB6Z      CIRCULAR     1.5              0          0          0          1          0
AAAAAAAAB60      CIRCULAR     1.5              0          0          0          1          0
AAAAAAAAB61      CIRCULAR     1.5              0          0          0          1          0
AAAAAAAAB62      CIRCULAR     1.5              0          0          0          1          0
AAAAAAAAB63      CIRCULAR     2                0          0          0          1          0
AAAAAAAAB64      CIRCULAR     2                0          0          0          1          0
AAAAAAAAB65      CIRCULAR     3.5              0          0          0          1          0
AAAAAAAAB66      CIRCULAR     3.5              0          0          0          1          0
AAAAAAAAB67      CIRCULAR     3.5              0          0          0          1          0
AAAAAAAAB68      CIRCULAR     2                0          0          0          1          0
AAAAAAAAB69      CIRCULAR     3.5              0          0          0          1          0
AAAAAAAAB6-      CIRCULAR     3.5              0          0          0          1          0
AAAAAAAAB6_      CIRCULAR     3.5              0          0          0          1          0
AAAAAAAAB7A      CIRCULAR     3.5              0          0          0          1          0
AAAAAAAAB7B      CIRCULAR     3.5              0          0          0          1          0
AAAAAAAAB7C      CIRCULAR     3.5              0          0          0          1          0
AAAAAAAAB7D      ARCH         15.5             27         0          0          1          0
AAAAAAAAB7E      CIRCULAR     6                0          0          0          1          0
AAAAAAAAB7F      ARCH         15.5             27         0          0          1          0
AAAAAAAAB7G      CIRCULAR     6.5              0          0          0          1          0
AAAAAAAAB7H      RECT_CLOSED  4                5          0          0          1          0
AAAAAAAAB7I      CIRCULAR     3.5              0          0          0          1          0
AAAAAAAAB7J      CIRCULAR     1.25             0          0          0          1          0
AAAAAAAAB7K      CIRCULAR     2.5              0          0          0          1          0
AAAAAAAAB7L      CIRCULAR     2.5              0          0          0          1          0
AAAAAAAAB7M      CIRCULAR     2.5              0          0          0          1          0
AAAAAAAAB7N      CIRCULAR     2.5              0          0          0          1          0
AAAAAAAAB7O      CIRCULAR     2.5              0          0          0          1          0
AAAAAAAAB7P      CIRCULAR     2.5              0          0          0          1          0
AAAAAAAAB7Q      CIRCULAR     2.5              0          0          0          1          0
AAAAAAAAB7R      CIRCULAR     2.5              0          0          0          1          0
AAAAAAAAB7S      CIRCULAR     2.25             0          0          0          1          0
AAAAAAAAB7T      CIRCULAR     2.25             0          0          0          1          0
AAAAAAAAB7U      CIRCULAR     2.25             0          0          0          1          0
AAAAAAAAB7V      CIRCULAR     2.25             0          0          0          1          0
AAAAAAAAB7W      CIRCULAR     1.25             0          0          0          1          0
AAAAAAAAB7X      CIRCULAR     2.25             0          0          0          1          0
AAAAAAAAB7Y      CIRCULAR     2.25             0          0          0          1          0
AAAAAAAAB7Z      CIRCULAR     2.5              0          0          0          1          0
AAAAAAAAB70      CIRCULAR     2.25             0          0          0          1          0
AAAAAAAAB71      CIRCULAR     2.25             0          0          0          1          0
AAAAAAAAB72      CIRCULAR     2.25             0          0          0          1          0
AAAAAAAAB73      CIRCULAR     1.25             0          0          0          1          0
AAAAAAAAA6Y      CIRCULAR     4                0          0          0          1          0
AAAAAAAAB74      CIRCULAR     4                0          0          0          1          0
AAAAAAAAB75      RECT_CLOSED  7.5              7.167      0          0          1          0
AAAAAAAAB76      CIRCULAR     4                0          0          0          1          0
AAAAAAAAB77      CIRCULAR     8                0          0          0          1          0
AAAAAAAAAAAE1    CIRCULAR     8                0          0          0          1          0
AAAAAAAAB78      RECT_CLOSED  10               18         0          0          1          0
AAAAAAAAB79      ARCH         15.5             27         0          0          1          0
AAAAAAAAB7-      ARCH         16.25            29         0          0          1          0
AAAAAAAAAAD4     ARCH         16.25            29         0          0          1          0
AAAAAAAAB7_      CIRCULAR     6                0          0          0          1          0
AAAAAAAAB8A      CIRCULAR     6                0          0          0          1          0
AAAAAAAAB8B      CIRCULAR     6                0          0          0          1          0
AAAAAAAAB8C      CIRCULAR     6                0          0          0          1          0
AAAAAAAAB8D      CIRCULAR     6                0          0          0          1          0
AAAAAAAAB8E      CIRCULAR     6                0          0          0          1          0
AAAAAAAAB8F      CIRCULAR     6                0          0          0          1          0
AAAAAAAAB8G      CIRCULAR     6                0          0          0          1          0
AAAAAAAAB8H      CIRCULAR     6                0          0          0          1          0
AAAAAAAAB8I      CIRCULAR     6                0          0          0          1          0
AAAAAAAAB8J      CIRCULAR     3                0          0          0          1          0
AAAAAAAAB8K      CIRCULAR     1.333            0          0          0          1          0
AAAAAAAAB8L      CIRCULAR     2.5              0          0          0          1          0
AAAAAAAAB8M      CIRCULAR     4                0          0          0          1          0
AAAAAAAAB8N      CIRCULAR     4                0          0          0          1          0
AAAAAAAAB8O      CIRCULAR     6                0          0          0          1          0
AAAAAAAAB8P      CIRCULAR     6                0          0          0          1          0
AAAAAAAAB8Q      CIRCULAR     3                0          0          0          1          0
AAAAAAAAB8R      CIRCULAR     6                0          0          0          1          0
AAAAAAAAB8S      CIRCULAR     5                0          0          0          1          0
AAAAAAAAB8T      CIRCULAR     6                0          0          0          1          0
AAAAAAAAB8U      CIRCULAR     4                0          0          0          1          0
AAAAAAAAB8V      CIRCULAR     3.5              0          0          0          1          0
AAAAAAAAB8W      CIRCULAR     3.5              0          0          0          1          0
AAAAAAAAB8X      CIRCULAR     4                0          0          0          1          0
AAAAAAAAB8Y      CIRCULAR     4                0          0          0          1          0
AAAAAAAAB8Z      CIRCULAR     4                0          0          0          1          0
AAAAAAAAB80      CIRCULAR     5                0          0          0          1          0
AAAAAAAAB81      CIRCULAR     4                0          0          0          1          0
AAAAAAAAB82      CIRCULAR     5.75             0          0          0          1          0
AAAAAAAAB83      CIRCULAR     5.5              0          0          0          1          0
AAAAAAAAB84      CIRCULAR     4                0          0          0          1          0
AAAAAAAAB85      CIRCULAR     4                0          0          0          1          0
AAAAAAAAB86      CIRCULAR     5.75             0          0          0          1          0
AAAAAAAAB87      CIRCULAR     3                0          0          0          1          0
AAAAAAAAB88      CIRCULAR     4                0          0          0          1          0
AAAAAAAAB89      CIRCULAR     3.5              0          0          0          1          0
AAAAAAAAB8-      CIRCULAR     3.5              0          0          0          1          0
AAAAAAAAB8_      CIRCULAR     4                0          0          0          1          0
AAAAAAAAB9A      CIRCULAR     4                0          0          0          1          0
AAAAAAAAB9B      CIRCULAR     4                0          0          0          1          0
AAAAAAAAB9C      CIRCULAR     4                0          0          0          1          0
AAAAAAAAB9D      CIRCULAR     7                0          0          0          1          0
AAAAAAAAB9E      CIRCULAR     5                0          0          0          1          0
AAAAAAAAB9F      CIRCULAR     6                0          0          0          1          0
AAAAAAAAB9G      CIRCULAR     7                0          0          0          1          0
AAAAAAAAB9H      HORSESHOE    10               0          0          0          1          0
AAAAAAAAB9I      HORSESHOE    10               0          0          0          1          0
AAAAAAAAB9J      HORSESHOE    10               0          0          0          1          0
AAAAAAAAB9K      HORSESHOE    10               0          0          0          1          0
AAAAAAAAB9L      CIRCULAR     7                0          0          0          1          0
AAAAAAAAB9M      CIRCULAR     7                0          0          0          1          0
AAAAAAAAB9N      CIRCULAR     7                0          0          0          1          0
AAAAAAAAB9O      CIRCULAR     7                0          0          0          1          0
AAAAAAAAB9P      CIRCULAR     7                0          0          0          1          0
AAAAAAAAB9Q      CIRCULAR     3                0          0          0          1          0
AAAAAAAAB9R      CIRCULAR     4                0          0          0          1          0
AAAAAAAAB9S      CIRCULAR     4                0          0          0          1          0
AAAAAAAAB9T      CIRCULAR     4                0          0          0          1          0
AAAAAAAAB9U      CIRCULAR     4                0          0          0          1          0
AAAAAAAAB9V      CIRCULAR     1                0          0          0          1          0
AAAAAAAAB9W      CIRCULAR     1                0          0          0          1          0
AAAAAAAAB9X      CIRCULAR     3                0          0          0          1          0
AAAAAAAAB9Y      CIRCULAR     4                0          0          0          1          0
AAAAAAAAB9Z      CIRCULAR     4                0          0          0          1          0
AAAAAAAAB90      CIRCULAR     4                0          0          0          1          0
AAAAAAAAB91      CIRCULAR     4                0          0          0          1          0
AAAAAAAAB92      CIRCULAR     4                0          0          0          1          0
AAAAAAAAB93      CIRCULAR     2                0          0          0          1          0
AAAAAAAAB94      CIRCULAR     2.25             0          0          0          1          0
AAAAAAAAB95      CIRCULAR     2.5              0          0          0          1          0
AAAAAAAAB96      CIRCULAR     2.5              0          0          0          1          0
AAAAAAAAB97      RECT_CLOSED  7                8.25       0          0          1          0
AAAAAAAAB98      CIRCULAR     4.5              0          0          0          1          0
AAAAAAAAB99      CIRCULAR     4.5              0          0          0          1          0
AAAAAAAAB9-      CIRCULAR     5                0          0          0          1          0
AAAAAAAAB9_      CIRCULAR     4                0          0          0          1          0
AAAAAAAAB-A      CIRCULAR     4                0          0          0          1          0
AAAAAAAAB-B      CIRCULAR     4                0          0          0          1          0
AAAAAAAAB-C      CIRCULAR     4                0          0          0          1          0
AAAAAAAAB-D      CIRCULAR     4                0          0          0          1          0
AAAAAAAAB-E      CIRCULAR     4                0          0          0          1          0
AAAAAAAAB-F      CIRCULAR     4                0          0          0          1          0
AAAAAAAAB-G      CIRCULAR     5.25             0          0          0          1          0
AAAAAAAAB-H      CIRCULAR     5.25             0          0          0          1          0
AAAAAAAAB-I      CIRCULAR     5.25             0          0          0          1          0
AAAAAAAAB-J      CIRCULAR     2                0          0          0          1          0
AAAAAAAAB-K      CIRCULAR     7.5              0          0          0          1          0
AAAAAAAAB-L      HORSESHOE    10               0          0          0          1          0
AAAAAAAAB-M      CIRCULAR     7.5              0          0          0          1          0
AAAAAAAAB-N      CIRCULAR     7.5              0          0          0          1          0
AAAAAAAAB-O      CIRCULAR     5.25             0          0          0          1          0
AAAAAAAAB-P      CIRCULAR     7.5              0          0          0          1          0
AAAAAAAAB-Q      CIRCULAR     0.83             0          0          0          1          0
AAAAAAAAB-R      CIRCULAR     7.5              0          0          0          1          0
AAAAAAAAB-S      HORIZ_ELLIPSE 8               10         0          0          1          0
AAAAAAAAB-T      HORIZ_ELLIPSE 8               10         0          0          1          0
AAAAAAAAB-U      HORIZ_ELLIPSE 8               10         0          0          1          0
AAAAAAAAB-V      CIRCULAR     3                0          0          0          1          0
AAAAAAAAB-W      CIRCULAR     4                0          0          0          1          0
AAAAAAAAB-X      CIRCULAR     4.5              0          0          0          1          0
AAAAAAAAB-Y      CIRCULAR     4                0          0          0          1          0
AAAAAAAAB-Z      CIRCULAR     4                0          0          0          1          0
AAAAAAAAB-0      CIRCULAR     3                0          0          0          1          0
AAAAAAAAB-1      CIRCULAR     3                0          0          0          1          0
AAAAAAAAB-2      CIRCULAR     3                0          0          0          1          0
AAAAAAAAB-3      CIRCULAR     3                0          0          0          1          0
AAAAAAAAB-4      CIRCULAR     3                0          0          0          1          0
AAAAAAAAB-5      CIRCULAR     3                0          0          0          1          0
AAAAAAAAB-6      CIRCULAR     3                0          0          0          1          0
AAAAAAAAB-7      CIRCULAR     1                0          0          0          1          0
AAAAAAAAB-8      CIRCULAR     2                0          0          0          1          0
AAAAAAAAB-9      CIRCULAR     3                0          0          0          1          0
AAAAAAAAB--      CIRCULAR     4.5              0          0          0          1          0
AAAAAAAAB-_      CIRCULAR     5                0          0          0          1          0
AAAAAAAAB_A      CIRCULAR     5                0          0          0          1          0
AAAAAAAAB_B      CIRCULAR     2                0          0          0          1          0
AAAAAAAAB_C      CIRCULAR     5                0          0          0          1          0
AAAAAAAAB_D      HORIZ_ELLIPSE 8               12         0          0          1          0
AAAAAAAAB_E      CIRCULAR     5                0          0          0          1          0
AAAAAAAAB_F      CIRCULAR     5                0          0          0          1          0
AAAAAAAAB_G      CIRCULAR     4.5              0          0          0          1          0
AAAAAAAAB_H      CIRCULAR     5                0          0          0          1          0
AAAAAAAAB_I      CIRCULAR     3.5              0          0          0          1          0
AAAAAAAAB_J      CIRCULAR     3                0          0          0          1          0
AAAAAAAAB_K      CIRCULAR     3                0          0          0          1          0
AAAAAAAAB_L      CIRCULAR     3                0          0          0          1          0
AAAAAAAAB_M      CIRCULAR     3                0          0          0          1          0
AAAAAAAAB_N      HORIZ_ELLIPSE 8               10         0          0          1          0
AAAAAAAAB_O      HORIZ_ELLIPSE 8               10         0          0          1          0
AAAAAAAAAAD5     HORIZ_ELLIPSE 8               10         0          0          1          0
AAAAAAAAB_P      CIRCULAR     3                0          0          0          1          0
AAAAAAAAB_Q      CIRCULAR     3                0          0          0          1          0
AAAAAAAAB_R      CIRCULAR     4                0          0          0          1          0
AAAAAAAAB_S      CIRCULAR     3.5              0          0          0          1          0
AAAAAAAAB_T      CIRCULAR     3.5              0          0          0          1          0
AAAAAAAAB_U      CIRCULAR     3.5              0          0          0          1          0
AAAAAAAAB_V      CIRCULAR     1                0          0          0          1          0
AAAAAAAAB_W      CIRCULAR     1                0          0          0          1          0
AAAAAAAAB_X      CIRCULAR     3.5              0          0          0          1          0
AAAAAAAAB_Y      ARCH         15.5             27         0          0          1          0
AAAAAAAAB_Z      ARCH         15.125           27         0          0          1          0
AAAAAAAAB_0      ARCH         16.25            29         0          0          1          0
AAAAAAAAB_1      RECT_CLOSED  11.75            15.5       0          0          1          0
AAAAAAAAB_2      RECT_CLOSED  11.75            15.5       0          0          1          0
AAAAAAAAB_3      CIRCULAR     3.5              243.667    0          0          1          0
AAAAAAAAB_4      CIRCULAR     3.5              243.667    0          0          1          0
AAAAAAAAB_5      CIRCULAR     3.5              243.667    0          0          1          0
AAAAAAAAB_6      CIRCULAR     3.5              243.667    0          0          1          0
AAAAAAAAB_7      CIRCULAR     3.5              0          0          0          1          0
AAAAAAAAB_8      CIRCULAR     3.5              0          0          0          1          0
AAAAAAAAB_9      CIRCULAR     4                0          0          0          1          0
AAAAAAAAB_-      CIRCULAR     3.5              0          0          0          1          0
AAAAAAAAB__      CIRCULAR     3                0          0          0          1          0
AAAAAAAACA0      CIRCULAR     3                0          0          0          1          0
AAAAAAAACA1      CIRCULAR     4                0          0          0          1          0
AAAAAAAAAAD6     ARCH         15.125           27         0          0          1          0
AAAAAAAACA2      CIRCULAR     5                0          0          0          1          0
AAAAAAAACA3      CIRCULAR     3                0          0          0          1          0
AAAAAAAACA4      CIRCULAR     0.667            0          0          0          1          0
AAAAAAAACA5      ARCH         9                8.167      0          0          1          0
AAAAAAAACA6      CIRCULAR     6.5              0          0          0          1          0
AAAAAAAACA7      CIRCULAR     1                0          0          0          1          0
AAAAAAAACA8      CIRCULAR     2.5              0          0          0          1          0
AAAAAAAACA9      CIRCULAR     5                0          0          0          1          0
AAAAAAAACA-      CIRCULAR     2.5              0          0          0          1          0
AAAAAAAACA_      CIRCULAR     6                0          0          0          1          0
AAAAAAAACB0      CIRCULAR     3                0          0          0          1          0
AAAAAAAAAAD7     CIRCULAR     4.5              0          0          0          1          0
AAAAAAAACB1      CIRCULAR     3.5              0          0          0          1          0
AAAAAAAACB2      CIRCULAR     3.5              0          0          0          1          0
AAAAAAAACB3      CIRCULAR     2                0          0          0          1          0
AAAAAAAAAAD8     CIRCULAR     1                0          0          0          1          0
AAAAAAAAAAD9     CIRCULAR     3                0          0          0          1          0
AAAAAAAACB4      CIRCULAR     7.5              0          0          0          1          0
AAAAAAAACB5      CIRCULAR     7.5              0          0          0          1          0
AAAAAAAAAAD-     CIRCULAR     7.5              0          0          0          1          0
AAAAAAAAAAD_     CIRCULAR     7.5              0          0          0          1          0
AAAAAAAAAAE0     CIRCULAR     3                0          0          0          1          0
AAAAAAAACB6      CIRCULAR     3.5              0          0          0          1          0
AAAAAAAACB7      CIRCULAR     6                0          0          0          1          0
AAAAAAAACB8      CIRCULAR     6                0          0          0          1          0
AAAAAAAACB9      CIRCULAR     5                0          0          0          1          0
AAAAAAAACB-      ARCH         15.5             27         0          0          1          0
AAAAAAAACB_      ARCH         16.25            29         0          0          1          0
AAAAAAAAAAE1     ARCH         16.25            29         0          0          1          0
AAAAAAAACC0      CIRCULAR     2                0          0          0          1          0
AAAAAAAACC1      CIRCULAR     10               0          0          0          1          0
AAAAAAAACC2      CIRCULAR     13.667           0          0          0          1          0
AAAAAAAACC3      CIRCULAR     13.667           0          0          0          1          0
AAAAAAAACC4      CIRCULAR     4                0          0          0          1          0
AAAAAAAACC5      CIRCULAR     4.5              0          0          0          1          0
AAAAAAAACC6      RECT_CLOSED  2                3          0          0          1          0
AAAAAAAACC7      CIRCULAR     5                0          0          0          1          0
AAAAAAAACC8      CIRCULAR     4.5              0          0          0          1          0
AAAAAAAACC9      CIRCULAR     5                0          0          0          1          0
AAAAAAAACC-      CIRCULAR     5                0          0          0          1          0
AAAAAAAACC_      CIRCULAR     5                0          0          0          1          0
AAAAAAAACD0      CIRCULAR     2                0          0          0          1          0
AAAAAAAACD1      CIRCULAR     5                0          0          0          1          0
AAAAAAAACD2      CIRCULAR     4                0          0          0          1          0
AAAAAAAACD3      CIRCULAR     4.5              0          0          0          1          0
AAAAAAAACD4      CIRCULAR     4.5              0          0          0          1          0
AAAAAAAACD5      CIRCULAR     4                0          0          0          1          0
AAAAAAAAAAE2     CIRCULAR     9.167            0          0          0          1          0
AAAAAAAAAAE3     CIRCULAR     9.167            0          0          0          1          0
AAAAAAAACD6      CIRCULAR     3                0          0          0          1          0
AAAAAAAACD7      CIRCULAR     6                0          0          0          1          0
AAAAAAAACD8      CIRCULAR     6                0          0          0          1          0
AAAAAAAACD9      CIRCULAR     6.5              0          0          0          1          0
AAAAAAAACD-      CIRCULAR     5                0          0          0          1          0
AAAAAAAACD_      CIRCULAR     6.5              0          0          0          1          0
AAAAAAAACE0      CIRCULAR     4                0          0          0          1          0
AAAAAAAACE1      CIRCULAR     4                0          0          0          1          0
AAAAAAAACE2      CIRCULAR     4                0          0          0          1          0
AAAAAAAACE3      CIRCULAR     4                0          0          0          1          0
AAAAAAAACE4      CIRCULAR     4                0          0          0          1          0
AAAAAAAAAAE4     CIRCULAR     4                0          0          0          1          0
AAAAAAAACE5      CIRCULAR     4                0          0          0          1          0
AAAAAAAACE6      CIRCULAR     6.5              0          0          0          1          0
AAAAAAAACE7      CIRCULAR     6.5              0          0          0          1          0
AAAAAAAACE8      FILLED_CIRCULAR 8             3.583      0          0          1          0
AAAAAAAACE9      CIRCULAR     8                0          0          0          1          0
AAAAAAAACE-      CIRCULAR     2                0          0          0          1          0
AAAAAAAACE_      CIRCULAR     2                0          0          0          1          0
AAAAAAAACF0      CIRCULAR     7                0          0          0          1          0
AAAAAAAACF1      CIRCULAR     2                0          0          0          1          0
AAAAAAAACF2      CIRCULAR     1.333            0          0          0          1          0
AAAAAAAACF3      CIRCULAR     1.25             0          0          0          1          0
AAAAAAAACF4      CIRCULAR     1.25             0          0          0          1          0
AAAAAAAACF5      CIRCULAR     2                0          0          0          1          0
AAAAAAAAA_W      CIRCULAR     3.5              0          0          0          1          0
AAAAAAAAAAAAAAB3 CIRCULAR     0.833            0          0          0          1          0
AAAAAAAAAAAAAF0  CIRCULAR     0.5              0          0          0          1          0
AAAAAAAAAAAAAF1  CIRCULAR     0.667            0          0          0          1          0
AAAAAAAAAAAAAAB4 CIRCULAR     0.833            0          0          0          1          0
AAAAAAAAAAAAAF2  CIRCULAR     0.5              0          0          0          1          0
AAAAAAAAAAAAAF3  CIRCULAR     0.667            0          0          0          1          0
AAAAAAAACF6      CIRCULAR     1.25             0          0          0          1          0
AAAAAAAACF7      CIRCULAR     7.5              0          0          0          1          0
AAAAAAAACF8      CIRCULAR     3.5              0          0          0          1          0
AAAAAAAACF9      CIRCULAR     1.25             0          0          0          1          0
AAAAAAAACF-      CIRCULAR     1                0          0          0          1          0
AAAAAAAACF_      CIRCULAR     1                0          0          0          1          0
AAAAAAAACG0      CIRCULAR     1                0          0          0          1          0
AAAAAAAACG1      CIRCULAR     2                0          0          0          1          0
AAAAAAAACG2      CIRCULAR     7.5              0          0          0          1          0
AAAAAAAACG3      CIRCULAR     7.5              0          0          0          1          0
AAAAAAAACG4      CIRCULAR     3                0          0          0          1          0
AAAAAAAACG5      CIRCULAR     3                0          0          0          1          0
AAAAAAAACG6      CIRCULAR     3                0          0          0          1          0
AAAAAAAACG7      RECT_CLOSED  5.75             6          0          0          1          0
AAAAAAAACG8      CIRCULAR     2.5              0          0          0          1          0
AAAAAAAACG9      CIRCULAR     2.5              0          0          0          1          0
AAAAAAAACG-      CIRCULAR     3                0          0          0          1          0
AAAAAAAACG_      CIRCULAR     3                0          0          0          1          0
AAAAAAAACH0      CIRCULAR     3.5              0          0          0          1          0
AAAAAAAACH1      CIRCULAR     3.5              0          0          0          1          0
AAAAAAAACH2      CIRCULAR     7                0          0          0          1          0
AAAAAAAACH3      CIRCULAR     7                0          0          0          1          0
AAAAAAAACH4      CIRCULAR     7                0          0          0          1          0
AAAAAAAACH5      CIRCULAR     4                0          0          0          1          0
AAAAAAAACH6      CIRCULAR     2.5              0          0          0          1          0
AAAAAAAACH7      CIRCULAR     3                0          0          0          1          0
AAAAAAAACH8      CIRCULAR     3                0          0          0          1          0
AAAAAAAACH9      CIRCULAR     1.5              0          0          0          1          0
AAAAAAAACH-      CIRCULAR     2.5              0          0          0          1          0
AAAAAAAACH_      CIRCULAR     1.5              0          0          0          1          0
AAAAAAAACI0      CIRCULAR     1.5              0          0          0          1          0
AAAAAAAACI1      CIRCULAR     7                0          0          0          1          0
AAAAAAAACI2      CIRCULAR     7                0          0          0          1          0
AAAAAAAAAAE5     CIRCULAR     7                0          0          0          1          0
AAAAAAAACI3      CIRCULAR     5                0          0          0          1          0
AAAAAAAACI4      CIRCULAR     3.5              0          0          0          1          0
AAAAAAAACI5      CIRCULAR     3.5              0          0          0          1          0
AAAAAAAACI6      CIRCULAR     3.5              0          0          0          1          0
AAAAAAAACI7      CIRCULAR     1.25             0          0          0          1          0
AAAAAAAACI8      CIRCULAR     1.25             0          0          0          1          0
AAAAAAAAAAE6     CIRCULAR     1.25             0          0          0          1          0
AAAAAAAACI9      CIRCULAR     8                0          0          0          1          0
AAAAAAAACI-      CIRCULAR     3                0          0          0          1          0
AAAAAAAACI_      CIRCULAR     2.5              0          0          0          1          0
AAAAAAAACJ0      CIRCULAR     1.25             0          0          0          1          0
AAAAAAAACJ1      CIRCULAR     1.25             0          0          0          1          0
AAAAAAAAAAAAAAB5 CIRCULAR     0.833            0          0          0          1          0
AAAAAAAAAAAAAF4  CIRCULAR     0.5              0          0          0          1          0
AAAAAAAAAAAAAF5  CIRCULAR     0.667            0          0          0          1          0
AAAAAAAACJ2      RECT_CLOSED  11.75            15.5       0          0          1          0
AAAAAAAAAAE7     RECT_CLOSED  11.75            17         0          0          1          0
AAAAAAAACJ3      CIRCULAR     3                0          0          0          1          0
AAAAAAAACJ4      RECT_CLOSED  7.25             6          0          0          1          0
AAAAAAAAAAE8     CIRCULAR     7                0          0          0          1          0
AAAAAAAACJ5      CIRCULAR     2.25             0          0          0          1          0
AAAAAAAACJ6      CIRCULAR     7                648        0          0          1          0
AAAAAAAAAAE9     RECT_CLOSED  4.5              12         0          0          1          0
AAAAAAAACJ7      CIRCULAR     3.5              0          0          0          1          0
AAAAAAAACJ8      CIRCULAR     3.5              0          0          0          1          0
AAAAAAAACJ9      CIRCULAR     3.5              0          0          0          1          0
AAAAAAAACJ-      CIRCULAR     3.5              0          0          0          1          0
AAAAAAAACJ_      CIRCULAR     3.5              0          0          0          1          0
AAAAAAAACK0      EGG          2.5              50         0          0          1          0
AAAAAAAACK1      EGG          2.5              50         0          0          1          0
AAAAAAAACK2      CIRCULAR     1.5              0          0          0          1          0
AAAAAAAACK3      CIRCULAR     6.5              0          0          0          1          0
AAAAAAAACK4      CIRCULAR     6.5              0          0          0          1          0
AAAAAAAACK5      CIRCULAR     3.5              0          0          0          1          0
AAAAAAAACK6      CIRCULAR     3.5              0          0          0          1          0
AAAAAAAACK7      CIRCULAR     3.5              0          0          0          1          0
AAAAAAAACK8      CIRCULAR     3.5              0          0          0          1          0
AAAAAAAACK9      CIRCULAR     3.5              0          0          0          1          0
AAAAAAAACK-      CIRCULAR     3.5              0          0          0          1          0
AAAAAAAACK_      CIRCULAR     3.5              0          0          0          1          0
AAAAAAAACL0      CIRCULAR     3                0          0          0          1          0
AAAAAAAAAAAE2    CIRCULAR     3                0          0          0          1          0
AAAAAAAACL1      CIRCULAR     3                0          0          0          1          0
AAAAAAAACL2      HORSESHOE    9.5              0          0          0          1          0
AAAAAAAACL3      HORSESHOE    9.5              0          0          0          1          0
AAAAAAAACL4      HORSESHOE    9.5              0          0          0          1          0
AAAAAAAACL5      CIRCULAR     3                0          0          0          1          0
AAAAAAAACL6      CIRCULAR     3                0          0          0          1          0
AAAAAAAACL7      CIRCULAR     3                0          0          0          1          0
AAAAAAAACL8      CIRCULAR     3.5              0          0          0          1          0
AAAAAAAACL9      CIRCULAR     3.5              0          0          0          1          0
AAAAAAAACL-      CIRCULAR     2                0          0          0          1          0
AAAAAAAACL_      CIRCULAR     2                0          0          0          1          0
AAAAAAAACM0      CIRCULAR     2                0          0          0          1          0
AAAAAAAACM1      CIRCULAR     2                0          0          0          1          0
AAAAAAAACM2      CIRCULAR     2                0          0          0          1          0
AAAAAAAACM3      CIRCULAR     3.5              0          0          0          1          0
AAAAAAAACM4      CIRCULAR     2                0          0          0          1          0
AAAAAAAACM5      CIRCULAR     2                0          0          0          1          0
AAAAAAAACM6      CIRCULAR     2                0          0          0          1          0
AAAAAAAACM7      ARCH         9                15         0          0          1          0
AAAAAAAACM8      CIRCULAR     3.5              0          0          0          1          0
AAAAAAAABD4      HORIZ_ELLIPSE 2.25            3.5        0          0          2          0
AAAAAAAACM9      CIRCULAR     1.5              0          0          0          1          0
AAAAAAAACM-      CIRCULAR     1.5              0          0          0          1          0
AAAAAAAACM_      RECT_CLOSED  4                3          0          0          1          0
AAAAAAAAAAE-     RECT_CLOSED  4                3          0          0          1          0
AAAAAAAACN0      CIRCULAR     1.5              0          0          0          1          0
AAAAAAAACN1      CIRCULAR     2                0          0          0          1          0
AAAAAAAACN2      CIRCULAR     1.25             0          0          0          1          0
AAAAAAAACN3      CIRCULAR     1                0          0          0          1          0
AAAAAAAACN4      CIRCULAR     5                0          0          0          1          0
AAAAAAAACN5      CIRCULAR     8                0          0          0          1          0
AAAAAAAACN6      RECT_CLOSED  7                8.25       0          0          1          0
AAAAAAAACN7      RECT_CLOSED  7                8.25       0          0          1          0
AAAAAAAACN8      RECT_CLOSED  7                8.25       0          0          1          0
AAAAAAAACN9      CIRCULAR     3                0          0          0          1          0
AAAAAAAACN-      FILLED_CIRCULAR 5.5           1.38       0          0          1          0
AAAAAAAACN_      FILLED_CIRCULAR 5.5           1.1        0          0          1          0
AAAAAAAACO0      FILLED_CIRCULAR 5.5           1.1        0          0          1          0
AAAAAAAACO1      FILLED_CIRCULAR 5.5           1.1        0          0          1          0
AAAAAAAACO2      FILLED_CIRCULAR 5.5           0.55       0          0          1          0
AAAAAAAACO3      FILLED_CIRCULAR 5.5           3.3        0          0          1          0
AAAAAAAACO4      FILLED_CIRCULAR 5.5           3.3        0          0          1          0
AAAAAAAACO5      FILLED_CIRCULAR 5.5           3.3        0          0          1          0
AAAAAB8          RECT_CLOSED  22.4             30         0          0          1          0
AAA0             RECT_CLOSED  8                10         0          0          1          0
AAAAAAAAAAAAE9   CIRCULAR     7.5              0          0          0          1          0
AAAAAAAAAAAAE-   CIRCULAR     7.5              0          0          0          1          0
AAAAAAAAAAAAE_   CIRCULAR     7.5              0          0          0          1          0
AAAAAAAAAAAAAF6  RECT_CLOSED  8                8          0          0
AAAAAAAB0        RECT_CLOSED  6.000000         12.000000  0          0
AAAAM8           RECT_CLOSED  7.500000         7.167000   0          0
AAAAAC0          RECT_CLOSED  5.000000         5.000000   0          0
AAAAAC1          RECT_CLOSED  5.000000         5.000000   0          0
AAAAAC2          RECT_CLOSED  2.000000         3.000000   0          0
AAAAAC3          RECT_CLOSED  4.000000         4.000000   0          0
AAAAAC4          RECT_CLOSED  4.000000         4.000000   0          0
AAAAAAB0         RECT_CLOSED  8.000000         4.000000   0          0
AAAAAAB1         RECT_CLOSED  6                4          0          0
AAAAAAB2         RECT_CLOSED  5                4          0          0
AAAAAAB3         RECT_CLOSED  1.750000         2.750000   0          0
AAAAAAB4         RECT_CLOSED  2.000000         3.000000   0          0
AAAAAAAB1        RECT_CLOSED  2.000000         3.000000   0          0
AAAAAAAAAAAAAF7  RECT_CLOSED  7.000000         12.500000  0          0
AAAAAAAAAAAAF1   CIRCULAR     2.000000         0          0          0
AAAAAAAAAAAAAAAAB0 RECT_CLOSED 0.625000        1.313000   0          0
AAAAAAAAAAAAAAAAB1 RECT_CLOSED 0.583           0.667      0          0
AAAAAAAAAAAAAAAA- RECT_CLOSED 1.000000         1.948000   0          0
AAAAAAAAAAAAAAAAB2 RECT_CLOSED 0.75            1.75       0          0
AAAAAAAAAAAAAAAAB3 RECT_CLOSED 0.833000        0.917000   0          0
AAAAAAAAAAAAAAAAB4 RECT_CLOSED 1               1.563      0          0
AAAAAAAAAAAAAAAAB5 RECT_CLOSED 1.250000        0.833000   0          0
AAAAAAAAAAAAAAAA_ RECT_CLOSED 1.250000         1.250000   0          0
AAAAAAAAAAAAAAAAB6 RECT_CLOSED 1.750000        3.677000   0          0
AAAAAAAAAAAAAAAAB7 RECT_CLOSED 3.271000        3.000000   0          0
AAAAAAAAAAAAAAAAB8 RECT_CLOSED 2.333000        4.979000   0          0
AAAAAAAAAAAAAAAAB9 RECT_CLOSED 4.5             4.5        0          0
AAAAAAAAAAAAAAAAAA9 RECT_CLOSED 2              75         0          0
AAAAAAAAAAAAAAAAB- RECT_CLOSED 1.5             2.36       0          0
AAAAAAAAAAAAAAAAB_ RECT_CLOSED 1.333000        3.193000   0          0
AAAAAAAAAAAAAAAAC0 RECT_CLOSED 1.833000        1.667000   0          0
AAAAAAAAAAAAAAAAC1 RECT_CLOSED 0.625000        0.646000   0          0
AAAAAAAAAAAAAAAAC2 RECT_CLOSED 0.833000        0.583000   0          0
AAAAAAAAAAAAAAAAC3 RECT_CLOSED 1.750000        3.396000   0          0
AAAAAAAAAAAAAAAAC4 RECT_CLOSED 1               2          0          0
AAAAAAAAAAAAAAAAC5 RECT_CLOSED 0.417000        0.771000   0          0
AAAAAAAAAAAAAAAAC6 RECT_CLOSED 0.833000        0.583000   0          0
AAAAAAAAAAAAAAAAAA- RECT_CLOSED 1.333000       1.802000   0          0
AAAAAAAAAAAAAAAAAA_ RECT_CLOSED 0.833000       2.000000   0          0
AAAAAAAAAAAAAAAAAB0 RECT_CLOSED 0.420000       0.770000   0          0
AAAAAAAAAAAAAAAAAB1 RECT_CLOSED 0.833000       0.583000   0          0
AAAAAAAAAAAAAAAB0 RECT_CLOSED 1.000000         1.563000   0          0
AAAAAAAAAAAAAAAB1 RECT_CLOSED 1.583000         1.000000   0          0
AAAAAAAAAAAAAAAAC7 RECT_CLOSED 1.333000        2.854000   0          0
AAAAAAAAAAAAAAAAC8 RECT_CLOSED 2.5             2.5        0          0
AAAAAAAAAAAAAAAAC9 CIRCULAR   1.000000         0          0          0
AAAAAAAAAAAAAAAB2 CIRCULAR    1.500000         0          0          0
AAAAAAAAAAAAAF8  CIRCULAR     2                0          0          0
AAAAAAAAAAAAAAB6 CIRCULAR     3.500000         0          0          0
AAAAAAAAAAAAAAAB3 RECT_CLOSED 2.167000         2.000000   0          0
AAAAAAAAAAAAAAAB4 RECT_CLOSED 3.000000         4.000000   0          0
AAAAAAAAAAAAAAAAAAAAA5 RECT_CLOSED 3.000000    12.000000  0          0
AAAAAAAAAAAAAAAAAB2 RECT_CLOSED 11.500000      4.000000   0          0
AAAAAAAAAAAAAAAAAB3 RECT_CLOSED 5.500000       4.000000   0          0
AAAAAAAAAAAAAAAB5 RECT_CLOSED 0.5              0.5        0          0
AAAAAAAAAAAAAAB7 RECT_CLOSED  3.500000         3.500000   0          0
AAAAAAAAAAAAAAAB6 RECT_CLOSED 1.000000         1.000000   0          0
AAAAAAAAAAAAAAAB7 CIRCULAR    2                0          0          0
AAAAAAAAAAAAAAAB8 RECT_CLOSED 2.500000         3.930000   0          0
AAAAAAAAAAAAAAB8 CIRCULAR     0.667000         0          0          0
AAAAAAAAAAAAAAAB9 RECT_CLOSED 1.500000         2.360000   0          0
AAAAAAAAAAAAAAB9 CIRCULAR     0.667000         0          0          0
AAAAAAAAAAAAAAB- CIRCULAR     0.667000         0          0          0
AAAAAAAAAAAAAAB_ RECT_CLOSED  5                13         0          0
AAAAAAAAAAAAAAAB- CIRCULAR    6                0          0          0
AAAAAAAAAAAAAAC0 RECT_CLOSED  5                13         0          0
AAAAAAAAAAAAAAAB_ RECT_CLOSED 5.000000         5.000000   0          0
AAAAAAAAAAAAAAC1 RECT_CLOSED  1.750000         8.000000   0          0
AAAAAAAAAAAAAAAAC- RECT_CLOSED 4               15.5       0          0
AAAAAAAAAAAAAAAAAAAAAAAAA0 CIRCULAR 1.5        0          0          0
AAAAAAAAAAAAAAAAAAAAAAAAA1 CIRCULAR 1.5        0          0          0
AAAAAAAAAAAAAAAAAAAAAAAAA2 CIRCULAR 1.5        0          0          0
AAAAAAAAAAAAAAAAAAAAAAAAA3 CIRCULAR 1.5        0          0          0
AAAAAAAAAAAAAAAAAAAAAAAAA4 CIRCULAR 1.5        0          0          0
AAAAAAAAAAAAAAAAAAAAAAAAA5 CIRCULAR 1.5        0          0          0
AAAAAAAAAAAAAAAAAAAAAAAAA6 CIRCULAR 1.5        0          0          0
AAAAAAAAAAAAAAAAAAAAAAAAA7 CIRCULAR 1.5        0          0          0
AAAAAAAAAAAAAAAAC_ RECT_CLOSED 16              14         0          0
AAAAAAAAAAAAAAAAD0 RECT_CLOSED 16              14         0          0
AAAAAAAAAAAAAAAAD1 RECT_CLOSED 16              14         0          0
AAAAAAAAAAAAAF9  RECT_CLOSED  2.000000         5.000000   0          0
AAAAAAAAAAAAAF-  RECT_CLOSED  2.000000         5.000000   0          0
AAAAAAAAAAAAAF_  RECT_CLOSED  2.000000         5.000000   0          0
AAAAAAAAAAAAAG0  RECT_CLOSED  2                5          0          0
AAAAAAAAAAAAF2   RECT_CLOSED  12               17         0          0
AAAAAAAAAAAE3    RECT_OPEN    3.000000         63.500000  0.000000   0.000000
AAAAAAB5         RECT_OPEN    21.25            54         0          0
AAAAAAB6         RECT_OPEN    21.25            86         0          0
AAAAAAAAAAAAAAAC0 RECT_OPEN   4.890000         3.454000   0.000000   0.000000
AAAAAAAAAAAAAAAC1 RECT_OPEN   4.720000         3.000000   0.000000   0.000000
AAAAAAAAAAAAAAAAD2 RECT_OPEN  5.650000         12.854000  0.000000   0.000000
AAAAAAAAAAAAAAAAD3 RECT_OPEN  3.230000         1.333000   0.000000   0.000000
AAAAAAAAAAAAAAAC2 RECT_OPEN   6.200000         4.454000   0.000000   0.000000
AAAAAAAAAAAAAAAC3 RECT_OPEN   5.500000         5.745000   0.000000   0.000000
AAAAAAAAAAAAAAAC4 RECT_OPEN   13.750000        20.000000  0.000000   0.000000
AAAAAAAAAAAAAAAC5 RECT_OPEN   7.92             12         0          0
AAAAAAAAAAAAAAAAD4 RECT_OPEN  5.25             54         0          0
AAAAAAAAAAAAAAAAAAA2 RECT_OPEN 6.3             7          0          0
AAAAAAAAAAAAAAAAD5 RECT_OPEN  6.280000         4.250000   0.000000   0.000000
AAAAAAAAAAAAAAAAD6 RECT_OPEN  2.560000         2.123000   0.000000   0.000000
AAAAAAAAAAAAAAAC6 RECT_OPEN   8.420000         8.440000   0.000000   0.000000
AAAAAAAAAAAAAAAC7 RECT_OPEN   4.25             32         0          0
AAAAAAAAAAAAAAAC8 RECT_OPEN   6.000000         18.000000  0.000000   0.000000
AAAAAAAAAAAAAAAC9 RECT_OPEN   5                13         0          0
AAAAAAAAAAAAAAAC- RECT_OPEN   3.750000         24.000000  0.000000   0.000000
AAAAAAAAAAAAAAAAD7 RECT_OPEN  8                6          0          0
AAAAAAAAAAAAAAAC_ RECT_OPEN   4                32         0          0
AAAAAAAAAAAAAAAD0 RECT_OPEN   3.850000         6.167000   0.000000   0.000000
AAAAAAAAAAAAAAAAD8 RECT_OPEN  3.250000         23.000000  0.000000   0.000000
AAAAAAAAAAAAAAAAAAAAA6 RECT_OPEN 7.000000      61.000000  0.000000   0.000000
AAAAAAAAAAAAAAAAD9 RECT_OPEN  18.07            6.83       0          0
AAAAAAAAAAAAAAAD1 RECT_OPEN   18.82            8.167      0          0
AAAAAAAAAAAAAAAAD- RECT_OPEN  2.672            63.833     0          0
AAAAAAAAAAAAAAAAD_ RECT_OPEN  3.000000         10.250000  0.000000   0.000000
AAAAAAAAAAAAAAAAE0 RECT_OPEN  1.000000         9.000000   0.000000   0.000000
AAAAAAAAAAAAAAAAE1 RECT_OPEN  3.440000         10.000000  0.000000   0.000000
AAAAAAAAAAAAAAAAE2 RECT_OPEN  9.700000         10.000000  0.000000   0.000000
AAAAAAAAAAAAAAAAE3 RECT_OPEN  2.200000         42.000000  0.000000   0.000000
AAAAAAAAAAAAAAAAE4 RECT_OPEN  6.550000         10.000000  0.000000   0.000000
AAAAAAAAAAAAAAAAE5 RECT_OPEN  3.400000         10.000000  0.000000   0.000000
AAAAAAAAAAAAAAAAE6 RECT_OPEN  1.200000         20.000000  0.000000   0.000000
AAAAAAAAAAAAAAAAE7 RECT_OPEN  4.870000         10.000000  0.000000   0.000000
AAAAAAAAAAAAAAAAE8 RECT_OPEN  4.800000         10.000000  0.000000   0.000000
AAAAAAAAAAAAAAAAE9 RECT_OPEN  2.500000         20.000000  0.000000   0.000000
AAAAAAAB2        RECT_OPEN    20.7             20         0          0
AAAAAAAB3        RECT_OPEN    8.920000         45.000000  0.000000   0.000000

[TRANSECTS]


NC 0.030000 0.030000 0.030000
X1 A1                49       141.000000 186.000000 0.0      0.0      0.000000 0.000000 0.000000
GR 104.51   0        104      2.8      102      12.45    100      19.28    98.45    24.84
GR 98.31    25.31    98       26.39    98       45.43    96       53.35    96       53.46
GR 94.44    62.99    94.42    63.17    94       65.66    93.51    71.86    93.41    73.3
GR 92.99    78.61    92.71    82.97    92.52    85.57    92       94.2     92       136.83
GR 91.91    136.99   89.15    141      77.39    160      77.08    180      84.36    186
GR 84.92    196.55   86       206.38   88       247.06   88       247.84   90       261.75
GR 90.48    264.74   92       274.54   94       286.14   94.4     287.41   94.49    287.68
GR 96       292.64   96.57    293.87   99.71    300.71   100.37   302.17   105.29   312.86
GR 108      318.63   109.39   321.56   112      327.01   114.82   332.87   116      335.28
GR 117.77   339.04   118      339.51   122      348.23   122.71   365.35

NC 0.030000 0.030000 0.030000
X1 A2                16       47.000000 107.000000 0.0      0.0      0.000000 0.000000 0.000000
GR 104.42   0        103.23   3.92     102      7.88     100      14.39    99.19    16.98
GR 94.96    21       82.48    47       71.82    63       72.12    86       82.34    107
GR 89.44    122      90       128.64   91.83    140.35   92       141.54   92       154.86
GR 91.03    174.33

NC 0.030000 0.030000 0.030000
X1 A3                63       373.000000 404.000000 0.0      0.0      0.000000 0.000000 0.000000
GR 131.65   0        130      34.18    130      85.58    128.84   117.09   128.74   121.5
GR 128.72   123.11   128.6    129.64   128.51   133.45   128.46   136.26   128.42   147.71
GR 128.38   151.76   128.46   157.29   128.5    161.72   128.53   163.42   128.53   163.84
GR 128.54   164.19   128      183.56   128      200.66   120      291.27   118      311.62
GR 116      333.78   114.85   348.02   114      359.3    112.15   373      103.61   380
GR 103.62   399      109.14   404      109.66   414.41   109.7    416.26   109.83   416.92
GR 110      423.36   110      489.18   111.84   507.42   112      509.64   112.24   510.35
GR 122      539.85   123.51   544.54   124      546.01   125.35   552.07   126      555.19
GR 127.83   568.95   127.96   569.89   130      585.18   130.28   587.38   131.58   598.22
GR 136.29   641.81   136.37   642.5    137.94   657.28   137.95   657.42   138      657.86
GR 138.32   660.42   138.41   661.07   138.74   663.79   139.28   667.33   144      697.06
GR 145.52   706.87   146      710.13   147.31   723.17   147.52   725.42   148      729.68
GR 148      741.67   148.54   748.67   148.56   749.11

NC 0.030000 0.030000 0.030000
X1 A4                65       214.000000 254.000000 0.0      0.0      0.000000 0.000000 0.000000
GR 129.01   0        128      11.97    126      24.96    124.62   30.09    122.69   37
GR 118      53.51    114      67.49    113.96   67.64    112      74.43    110      81.33
GR 109.05   85.2     108      89.73    106      106.32   104.19   116.62   104      117.82
GR 103.7    118.2    102      120.38   101.63   120.8    100      122.71   100      149.78
GR 98       158.35   92       185.56   90       195.52   88       209.09   87.5     211.01
GR 88.6     214      77.98    219      77.98    242      88.29    254      86.77    270.31
GR 87.83    301.02   88       306.85   88       310.25   89.9     348.29   89.93    349.1
GR 90       350.36   90.19    351.14   96       374.4    96.46    376.27   98       382.43
GR 98.97    386.17   99.32    387.55   100      390.11   103.8    404.12   104      404.84
GR 105.36   409.82   106.34   413.75   107.1    417.04   108      421.04   108.56   427.81
GR 109.06   433.7    109.32   437.28   109.88   444.07   109.89   444.29   110.57   452.63
GR 110.69   453.92   111.66   465.34   112      468.67   112      469.15   112.22   471.6
GR 112.25   471.97   114      487.94   114      488.71   116      505.83   117.98   529.24

NC 0.030000 0.030000 0.030000
X1 A5                60       194.000000 254.000000 0.0      0.0      0.000000 0.000000 0.000000
GR 120.96   0        120      25.26    119.88   27.04    119.36   35.22    118.89   43.14
GR 118.56   47.39    118      53.97    117.6    55.64    114.88   65.74    112      76.12
GR 111.79   76.84    110      82.83    109.04   85.96    106      95.6     98.15    119.9
GR 98       120.38   97.85    120.88   96       127.79   96       153.36   98.41    159.37
GR 100      163.07   101.75   166.81   102      167.37   103.96   171.42   104.01   171.55
GR 106      179.5    106      186.69   105.64   188.06   104      193.88   103.35   194
GR 84.18    218      84.18    235      90.48    254      92       254.25   92       348.73
GR 92.26    358.89   92.27    359.16   92.29    359.49   92.35    362.26   92.38    362.92
GR 92.45    365.03   92.48    365.63   92.58    368.84   93.14    384.78   93.18    386.26
GR 93.96    405.78   94       406.68   95.82    412.58   95.89    412.8    96       413.17
GR 97.22    417.11   97.42    417.78   98       419.63   102.42   433.92   103.95   438.91
GR 104      439.06   105.29   443.12   106.51   446.88   107.06   449.92   107.13   450.25

NC 0.030000 0.030000 0.030000
X1 A6                67       117.000000 135.000000 0.0      0.0      0.000000 0.000000 0.000000
GR 126.19   0        126.18   6.15     126.21   6.93     126.23   7.61     126.24   8.13
GR 126.27   9.19     126.41   21.77    127.81   62.95    127.9    66.07    128      68.62
GR 132      82.65    132.25   83.54    134      89.67    134      98.67    132.33   100.63
GR 130.09   103.27   130      103.37   129.29   104.2    128      105.69   127.79   105.93
GR 126      108      125.57   108.5    124      110.3    118      117.23   117.15   118.2
GR 116      119.54   116      125.44   116.22   126.01   118      130.55   118.37   131.47
GR 120      135.24   121.68   139.03   122      139.71   122.13   139.98   125.97   148.25
GR 126.04   148.42   139.77   178      140      178.49   141.62   181.99   142      182.8
GR 145.71   190.79   146      191.41   146.26   192.34   148      203.89   148.05   204.52
GR 148.72   215.88   148.94   219.23   149.32   224.16   149.54   227.56   150      231.84
GR 150.08   232.31   152      244.1    152.07   244.51   152.34   246.25   155.97   268.84
GR 156      269.04   156.7    273.3    157.53   278.93   157.82   281.02   157.98   282.9
GR 157.95   284.23   157.97   284.39   157.89   285.86   157.9    286.76   157.89   287.12
GR 157.8    288.82   157.77   289.6

NC 0.030000 0.030000 0.030000
X1 A7                57       282.000000 312.000000 0.0      0.0      0.000000 0.000000 0.000000
GR 128      0        128      36.01    127.8    41.33    127.75   42.5     127.5    55.44
GR 127.4    57.59    127.56   67.1     127.52   68.52    128      74.28    130      94.02
GR 131.44   103.44   131.48   103.82   132      105.44   132      106.66   131.75   108.35
GR 130      115.44   129.75   116.31   129.02   118.91   124.85   134.95   124      137.87
GR 122.14   144.02   120      149.94   118.5    153.92   116      160.25   114.7    169.27
GR 114      174.82   112      225.16   111.08   246      108.92   282      105.49   294
GR 104.96   303      109.22   312      109.89   334      110      334.01   112      374.74
GR 113.6    378.09   115.46   382.05   116      383.27   117.03   385.48   118      387.69
GR 118.62   389.05   120      392.2    120.24   392.72   121.28   395.12   121.82   396.42
GR 122      396.86   134      425.74   134.33   428.97   136      439.79   137.1    450.3
GR 138      460.05   138.84   464.97   139.33   467.96   140      473.97   140.22   477.24
GR 140.58   484.94   141.88   518.94

NC 0.030000 0.030000 0.030000
X1 A8                33       63.000000 119.000000 0.0      0.0      0.000000 0.000000 0.000000
GR 109.64   0        108      8.91     106.01   13.46    100      26.5     99.93    26.64
GR 96       35.17    94.9     36       79.23    63       71.14    80       71.23    100
GR 80.94    119      83.49    124      83.08    124.41   84       125.44   84.73    126.31
GR 86       127.78   86.52    130.56   88       138.94   90       153.22   90       183.3
GR 93.87    189.05   94       189.24   94.46    190.02   96       192.58   97.26    195.29
GR 98       196.92   101.91   206.57   102      206.78   102.04   206.89   102.12   207.1
GR 104      211.86   105.06   214.94   105.57   216.38

NC 0.030000 0.030000 0.030000
X1 A9                74       365.000000 427.000000 0.0      0.0      0.000000 0.000000 0.000000
GR 134.92   0        134      42.89    133.52   55.91    133.5    58.5     133.2    66.06
GR 132      123.95   132      145.26   126      216.85   122      262.03   121.8    264.14
GR 121.68   265.59   120      284.79   120      284.96   116      315.78   115.86   316.9
GR 112      347.03   111.16   352.48   110      360.35   109.93   360.5    109.2    362.2
GR 108.78   363.12   108.386  364      108      364.86   106.5    369.38   106      370.85
GR 99.8     382.9    99.75    395.86   100.1    396.91   103.23   400.64   106      411.91
GR 108      427      108      445.61   110      467.03   110.62   474.16   112      494.89
GR 113.2    506.76   114      515.28   114.47   518.73   114.67   519.96   116      528.54
GR 118      538.35   118.15   538.98   119.79   545.71   120      546.6    125.54   569.42
GR 130      587.5    132      595.36   134      606.23   135.87   617.21   140      641.65
GR 140.03   641.93   140.57   647.47   140.94   651.54   141.05   652.65   141.14   653.78
GR 141.26   655.11   141.35   656.41   141.46   657.64   141.54   658.85   141.62   659.82
GR 142      665.09   142      665.26   142.13   667.69   142.2    668.77   142.83   679.24
GR 144      697.77   144.03   698.55   144.37   706.32   144.43   707.85   145.13   722.82
GR 145.48   731.36   145.66   734.78   145.66   734.99   145.78   737.41

NC 0.030000 0.030000 0.030000
X1 A-                74       346.000000 400.000000 0.0      0.0      0.000000 0.000000 0.000000
GR 133.62   0        133.51   2.32     133.4    6.06     133.13   13.95    132.67   25.19
GR 132.02   44.51    132.01   44.63    132      44.93    131.21   58.96    130.86   68.32
GR 130.51   75.02    130.11   88.98    130      91.53    130      92.2     129.61   103.64
GR 126      175.18   120.18   224.77   120.06   225.72   120      226.27   118      243.18
GR 116.55   252.84   116      257.64   112.81   272.83   111.08   280.88   110      285.21
GR 109.07   288.74   108      292.25   106.55   296.76   106      298.51   104      304.51
GR 103.43   309.67   102      326.67   101.27   330.95   99.13    344.91   98.69    346
GR 94.51    359      94.47    369      95.78    384      104.33   400      104      408.01
GR 104.98   426.04   105.02   426.69   105.22   430.45   105.3    432.82   105.37   434.12
GR 105.54   437.5    106      448.99   106      470.02   108      502.11   108.35   506.23
GR 110      527.15   110.22   530.28   112      550.29   112.62   556.26   114      568.86
GR 117      651.78   118      677.12   119.8    680.89   120      681.32   121.92   685.34
GR 123.16   687.96   124      689.71   135.84   714.6    136      714.94   136.28   715.52
GR 140      723.44   140      756.95   141.45   797.81   141.47   800.36   141.75   807.92
GR 141.76   808.77   142      815.39   142      834.9    142.45   842.86

NC 0.030000 0.030000 0.030000
X1 A_                45       358.000000 412.000000 0.0      0.0      0.000000 0.000000 0.000000
GR 124.66   0        121.4    94.36    118.79   163.48   116      249.87   102      312.26
GR 100      344.99   99.57    346.39   97.03    354.77   95.61    358      91.43    371
GR 91.39    381      92.7     396      101.25   412      104.57   430.17   105.61   480.15
GR 106      495.9    108      518.38   108      554.94   112      589.92   112      590.04
GR 114      623.54   114.11   625.88   114.16   627.16   116      663.67   118      692.95
GR 120      718.56   120      722.19   120.74   752.82   120.75   754.53   120.78   756.42
GR 121.21   770.15   121.88   783.87   121.89   784.13   122      786.54   124      839.39
GR 124.91   847.48   127.2    871.05   127.9    881.56   127.95   882.27   127.95   882.56
GR 127.97   886.44   128      887.45   128      889.92   128.46   897.91   129.77   908.04

NC 0.030000 0.030000 0.030000
X1 B0                68       98.000000 153.000000 0.0      0.0      0.000000 0.000000 0.000000
GR 110.8    0        110.78   0.88     110.76   2.08     110.73   3.15     110.67   4.23
GR 110.66   4.95     110.58   6.02     110.57   6.36     110.51   7.66     110.5    7.82
GR 110.5    8.1      110.47   9.6      110.44   11.38    110.44   12.22    110      14.42
GR 110      20.06    109.91   20.48    109.59   23.4     108      35.61    107.12   38.7
GR 106      43.5     96       63.12    95.89    63.34    94.17    66.71    93.72    67.61
GR 90       74.9     88       78.69    87.93    78.81    87.84    78.99    86.78    80.89
GR 86.1     82.56    86.04    82.69    86       82.9     85.8     83.73    85.55    84.1
GR 84.98    85.12    84       86.27    82       88.39    80.73    90.25    80       91.31
GR 78       94.28    77.34    95.27    75.92    98       69.98    110      70.15    128
GR 78.84    153      85.61    178.5    86       185.1    86.63    193.14   86.78    195.16
GR 88       210.12   88       210.25   89.54    220.36   90       223.24   92       247.37
GR 97.95    260.23   98       260.34   98.08    260.51   100      264.65   101.29   267.28
GR 102      268.76   102.31   269.34   103.78   272.04   104      272.45   110.69   284.79
GR 111.43   286.18   112      287.21   112.21   287.57

NC 0.030000 0.030000 0.030000
X1 B1                46       197.000000 231.000000 0.0      0.0      0.000000 0.000000 0.000000
GR 136.75   0        136      11.09    136      18.99    134.04   33.38    134      33.7
GR 133.89   34.2     132      42.63    130.78   47.33    130.3    49.33    130.15   49.94
GR 130.12   50.08    130      50.62    130      52.05    128.4    61.47    128.3    62.46
GR 128      64.23    127.43   67.95    127.2    69.52    126      80.1     125.96   80.48
GR 125.71   82.64    125.69   82.79    125.68   82.91    125.54   84.17    125.52   84.28
GR 124.89   87.69    124      92.04    123.58   94.18    123.29   95.51    122      101.64
GR 121.44   105.32   120      113.39   119.78   120.63   118      171.61   117.19   182.86
GR 116      197.4    116      231.41   124      256.1    127.68   267.56   128.55   270.3
GR 131.34   279.27   132.35   282.91   133.7    287.61   133.94   288.42   134      288.63
GR 140.81   311.5

NC 0.030000 0.030000 0.030000
X1 B2                55       378.000000 456.000000 0.0      0.0      0.000000 0.000000 0.000000
GR 137.71   13.4     132      56.2     121.79   102.3    110.65   145.7    110      147.2
GR 109.75   147.7    108      151      106.23   154.3    106      154.7    105.78   155.1
GR 104      158.3    104      161.5    104      161.8    104.11   162      106      165.3
GR 107.06   172      108      178.6    108      180.2    108      182.2    109.35   198.5
GR 110.33   226.6    110.6    245.4    110.56   247.1    110.56   247.2    110      267.8
GR 110      293.2    109.03   308.6    108.56   313.8    108      319.9    107.18   330.3
GR 106.86   334.4    106      344.4    106      345.8    104.93   361.6    104      374.8
GR 103.7    378.5    101.6    396.2    101.57   420      101.6    441.9    102.14   443
GR 102.74   448.8    102.84   450.6    102.98   452.8    103.25   455.8    103.84   461.1
GR 103.84   461.2    103.92   461.9    104      463.2    104      485.6    104.74   494.8
GR 107.27   520.7    110      553.2    114      607      120.41   691.9    132.46   760.2

NC 0.030000 0.030000 0.030000
X1 AAAAAAAAAAF0      8        77.010002 124.949997 0.0      0.0      0.000000 0.000000 0.000000
GR 112      0        112      99.441515 112      176.791137 114      252.809849 116      329.709386
GR 116      424.696545 116      427.90493 118      544.180416

NC 0.030000 0.030000 0.030000
X1 AAAAAAAAAAAAAG1   17       77.010002 124.949997 0.0      0.0      0.000000 0.000000 0.000000
GR 84.63    0        82       13.01    78       21.47    68.07    69.37    65       77.01
GR 60.1     82       53.25    89.44    53.25    111.01   65.84    118.05   67.26    124.95
GR 70       132.98   70       137.18   68       153.62   68       169.59   67.3     177.66
GR 69       184.72   69       191.93

NC 0.030000 0.030000 0.030000
X1 AAAAAAAAAAAAAG2   18       57.360000 174.100000 0.0      0.0      0.000000 0.000000 0.000000
GR 83.84    0        75.42    23.76    74       35.3     65.57    46.81    64.62    57.36
GR 60.44    70.04    60.44    72.04    53.49    82.46    53.98    159.94   62.03    172.01
GR 62       174.1    71       186.28   71       191.91   69       203.71   68       217.87
GR 68       233.59   70       246.18   70       247.3

NC 0.030000 0.030000 0.030000
X1 AAAAAAAAAAAAAG3   18       53.380000 157.090000 0.0      0.0      0.000000 0.000000 0.000000
GR 86.09    0        75.05    35.15    64.21    53.38    62.12    59.02    62.12    62.53
GR 53.69    75.18    54.05    139.01   62.12    151.11   62.12    153.11   66.1     157.09
GR 68       162.61   69       190.71   71       195.88   71       206.54   69       217.45
GR 69       252.69   70       256.43   70       261.2

NC 0.030000 0.030000 0.030000
X1 AAAAAAAAAAAAAG4   19       63.070000 158.390000 0.0      0.0      0.000000 0.000000 0.000000
GR 81.05    0        80.69    5.07     74.89    47.15    70.63    63.07    61.98    74.15
GR 61.98    76.15    53.91    88.26    54.1     135.73   62.16    147.82   62.16    149.82
GR 69       158.39   69.58    170.56   69       176.66   71       206.16   71       218.5
GR 69       239.54   69       263.02   70       266.86   70.24    270.24

NC 0.030000 0.030000 0.030000
X1 AAAAAAAAAAAAAG5   16       57.560000 173.800000 0.0      0.0      0.000000 0.000000 0.000000
GR 80.94    0        76.08    27.53    76       33.39    74       50.66    68.35    57.56
GR 64.81    64.13    62.18    66.76    62.18    68.76    54.12    80.85    54.55    151.53
GR 62.65    163.67   62.65    165.67   69       173.8    70       188.28   70       244.29
GR 71       249.96

NC 0.030000 0.030000 0.030000
X1 AAAAAAAAAAAAAG6   19       69.940000 174.930000 0.0      0.0      0.000000 0.000000 0.000000
GR 86.34    0        83       12.66    82       23.7     72.29    56.25    63.73    69.94
GR 60.23    78.29    60.23    80.29    54.33    89.14    54.6     143.1    60.23    151.55
GR 60.23    153.55   61.93    155.78   62       174.93   67       177.3    70.07    185.01
GR 70       200      71       219.64   72       222.88   72       224.32

NC 0.030000 0.030000 0.030000
X1 AAAAAAAAAAAAAG7   14       66.529999 174.330002 0.0      0.0      0.000000 0.000000 0.000000
GR 100      0        88.28    25       78       52.43    68       66.53    60.81    77.32
GR 60.81    79.32    54.75    88.41    55.12    152.9    61.16    161.97   61.16    163.97
GR 71.75    174.33   74       180.01   73.08    229.06   74.39    236.26

NC 0.030000 0.030000 0.030000
X1 AAAAAAAAAAAAAG8   16       51.490002 176.529999 0.0      0.0      0.000000 0.000000 0.000000
GR 98.18    0        88       27.93    83       39.74    78.94    51.49    68.9     65.18
GR 61.04    78.32    61.04    80.34    54.97    89.46    55.26    148.61   61.31    157.68
GR 61.31    159.68   74       176.53   74.71    206.25   74       213.16   74       224.62
GR 75.66    233.42

NC 0.030000 0.030000 0.030000
X1 AAAAAAAAAAAAAG9   23       71.940000 125.740000 0.0      0.0      0.000000 0.000000 0.000000
GR 104.51   0        96       22.37    82.08    48.9     82       51.72    73.82    66.01
GR 70.08    71.94    68.67    77.37    63.5     84.01    57       91.26    55.1     93.16
GR 55.1     107.32   66       118.22   70       125.74   71.12    142.38   71       152.08
GR 72       157.5    72       171.49   73       188.74   73       197.16   74       207.4
GR 74       220.63   75       231.7    76.1     238.17

NC 0.030000 0.030000 0.030000
X1 AAAAAAAAAAAAAG-   18       50.190000 166.190000 0.0      0.0      0.000000 0.000000 0.000000
GR 102.92   0        89.87    20.65    86.11    33.51    83.09    41.29    77       50.19
GR 65.61    62.31    62       67.57    62       69.57    55.37    79.52    55.76    144.36
GR 61.8     153.43   61.8     155.43   68.9     166.19   72.38    169.59   72.42    172.47
GR 74.96    200      77       210      77       213.6

NC 0.030000 0.030000 0.030000
X1 AAAAAAAAAAAAAG_   22       87.370000 107.500000 0.0      0.0      0.000000 0.000000 0.000000
GR 113.08   0        100.75   25       93.96    44.99    91       55.79    83       69.54
GR 79.25    74.27    75.01    81.48    65       87.37    62.86    89.7     56.33    96.23
GR 56.3     101.17   59       103.87   66.25    107.5    71.51    112.35   76       121.29
GR 76       129.04   75       143.97   75       154.77   75.19    165.28   77       177.69
GR 81.09    207.9    82.28    213.96

NC 0.030000 0.030000 0.030000
X1 AAAAAAAAAAAAAH0   17       79.839996 186.130005 0.0      0.0      0.000000 0.000000 0.000000
GR 88       0        88.74    3.77     87.05    26.92    77       35.3     76.8     60.31
GR 68.3     79.84    64.71    83.43    64.71    85.43    56.65    97.52    57.05    165.15
GR 65.11    177.24   65.11    179.24   72       186.13   78.92    193.75   80.02    197.73
GR 82       214.9    83.63    222.32

NC 0.030000 0.030000 0.030000
X1 AAAAAAAAAAAAAH1   19       74.860001 183.410004 0.0      0.0      0.000000 0.000000 0.000000
GR 116.19   0        110.42   20.75    107.32   26.63    90       49.56    85.28    60.15
GR 69       74.86    64.92    78.94    64.92    80.94    56.86    93.04    57.31    166.38
GR 65.37    178.47   65.37    180.47   68.32    183.41   77       196.05   79.08    213.2
GR 82       224.77   83.31    237.52   85       243.36   85       245.44

NC 0.030000 0.030000 0.030000
X1 AAAAAAAAAAAAAH2   16       77.379997 200.690002 0.0      0.0      0.000000 0.000000 0.000000
GR 122.49   0        122.11   3.5      105      36.08    93.59    48.92    65.13    77.38
GR 65.13    79.38    57.07    91.47    57.74    186.59   65.81    198.69   65.81    200.69
GR 74.73    207.58   78       214.59   82.08    234.19   84       249.48   85.58    254.45
GR 85.66    256.63

NC 0.030000 0.030000 0.030000
X1 AAAAAAAAAAAAAH3   18       73.980003 216.330002 0.0      0.0      0.000000 0.000000 0.000000
GR 118.92   0        102.59   30.65    90       53.86    87.81    60.05    84       65.81
GR 70       73.98    65.34    78.64    65.34    80.64    57.28    92.74    58.04    196.21
GR 66.1     208.31   66.1     210.31   75.89    216.33   79       220.81   81.23    231.37
GR 85       259.6    86       263.37   86       267.33

[LOSSES]


AAAAAAAAAAC0     1          1          0          NO         0
A0               1          1          0          NO         0
AAAAAAAAAAAAAAAA4 1         1          0          NO         0
AAA1             0          0          0          YES        0
AAAAM2           0          1          0          YES        0
AAAAAAAABM3      0          0          0          YES        0
AAAAAAAAAAC4     0          0          0.25       NO         0
AAAAAAAABQ6      0.6        0          0          NO         0
AAAAAAAAB4R      0          0          0.25       NO         0
AAAAAAAAB4S      0          0          0.25       NO         0
AAAAAAAAAAD4     0          0          0.25       NO         0
AAAAAAAAB_Z      0          0          0.25       NO         0
AAAAAAAAB_0      0          0          0.25       NO         0
AAAAAAAACN-      0          0.4        0          NO         0
AAAAAAAACN_      0          0.2        0          NO         0
AAAAAAAACO0      0          0.2        0          NO         0
AAAAAAAACO2      0          0.4        0          NO         0
AAAAAAAACO3      0          0.2        0          NO         0
AAAAAAAACO4      0          0.2        0          NO         0

[CONTROLS]





RULE AAAAAAAAAAAAAAAAAAA3
IF SIMULATION TIME > 0
AND SIMULATION TIME < 0.1
THEN PUMP AAAAAAAA_ SETTING = 0
RULE AAAAAAAAAAAAAAAAAAAAA7
IF LINK AAAAAAAAB5I FLOW < 7.5
AND NODE AAAAAAAAAAAAE6 DEPTH > 7.0
AND NODE AA4 HEAD < 14.17
THEN PUMP AAAAAAAA_ SETTING = 1
PRIORITY 1
RULE AAAAAAAAAAAAF3
IF NODE AAAAAAAAAAAAE6 DEPTH > 20
THEN PUMP AAAAAAAA_ SETTING = 1
PRIORITY 2
RULE AAAAAAAAAAAAF4
IF NODE AAAAAAAAAAAAE6 DEPTH <= 4.0
THEN PUMP AAAAAAAA_ SETTING = 0
PRIORITY 3
RULE AAAAAAAAAAAAF5
IF NODE AAAAAAAAAAAAAAAA3 DEPTH > 1.5
THEN PUMP AAAAAAAA_ SETTING = 0
PRIORITY 4


RULE AAAAAAAAAAAE8
IF NODE AA4 HEAD < 999
THEN ORIFICE AAAAAAAAAAAAAF9 SETTING = 0.000000
AND  ORIFICE AAAAAAAAAAAAAF- SETTING = 0.000000
AND  ORIFICE AAAAAAAAAAAAAF_ SETTING = 0.000000
PRIORITY 1



















RULE AAAAAAAAAAF1
If NODE AA4 HEAD < 999
Then WEIR AAAAAAB6 SETTING = CURVE AAAAAAB6
and WEIR AAAAAAB5 SETTING = CURVE AAAAAAB5
PRIORITY 1.0


RULE AAAE4
IF SIMULATION TIME >= 0
THEN ORIFICE AAAAAAAAAAAAF2 SETTING = 0.000000
PRIORITY 0.000000






RULE AAAAAAAAAAAAAAAAAAA4
IF NODE AAAAAAAAA4 HEAD < 16.000000
THEN ORIFICE AAAAAAAAAAAAAF6 SETTING = 0.000000
ELSE ORIFICE AAAAAAAAAAAAAF6 SETTING = 1.000000
PRIORITY 0.000000


RULE AAAAAAAAAAAAAAAAE-
IF NODE AAAAAAAAAAAAAE1 HEAD >= 4.660000
THEN ORIFICE AAAAAAAAAAAAAAAAB0 SETTING = 0.000000
PRIORITY 0.000000
RULE AAAAAAAAAAAAAAAAAAA5
IF NODE AAAAAAAAAAAAAE1 HEAD > 4.500000
AND NODE AAAAAAAAAAAAAE1 HEAD < 4.660000
THEN ORIFICE AAAAAAAAAAAAAAAAB0 SETTING = 0.200000
PRIORITY 0.000000
RULE AAAAAAAAAAAAAAAAAAA6
IF NODE AAAAAAAAAAAAAE1 HEAD > 4.350000
AND NODE AAAAAAAAAAAAAE1 HEAD <= 4.500000
THEN ORIFICE AAAAAAAAAAAAAAAAB0 SETTING = 0.400000
PRIORITY 0.000000
RULE AAAAAAAAAAAAAAAAAAA7
IF NODE AAAAAAAAAAAAAE1 HEAD > 4.190000
AND NODE AAAAAAAAAAAAAE1 HEAD <= 4.350000
THEN ORIFICE AAAAAAAAAAAAAAAAB0 SETTING = 0.600000
PRIORITY 0.000000
RULE AAAAAAAAAAAAAAAAAAA8
IF NODE AAAAAAAAAAAAAE1 HEAD > 4.030000
AND NODE AAAAAAAAAAAAAE1 HEAD <= 4.190000
THEN ORIFICE AAAAAAAAAAAAAAAAB0 SETTING = 0.800000
PRIORITY 0.000000
RULE AAAAAAAAAAAAAAAAE_
IF NODE AAAAAAAAAAAAAE1 HEAD <= 4.030000
THEN ORIFICE AAAAAAAAAAAAAAAAB0 SETTING = 1.000000
PRIORITY 0.000000
RULE AAAAAAAAAAAAAAAAAAAA0
IF NODE AAAAAAAAAAAAAE2 HEAD > -2.410000
AND NODE AAAAAAAAAAAAAE2 HEAD < -2.240000
THEN ORIFICE AAAAAAAAAAAAAAAA- SETTING = 0.470000
PRIORITY 0.000000
RULE AAAAAAAAAAAAAAAAAAA9
IF NODE AAAAAAAAAAAAAE2 HEAD > -2.580000
AND NODE AAAAAAAAAAAAAE2 HEAD <= -2.410000
THEN ORIFICE AAAAAAAAAAAAAAAA- SETTING = 0.600000
PRIORITY 0.000000
RULE AAAAAAAAAAAAAAAAAAAA1
IF NODE AAAAAAAAAAAAAE2 HEAD > -2.740000
AND NODE AAAAAAAAAAAAAE2 HEAD <= -2.580000
THEN ORIFICE AAAAAAAAAAAAAAAA- SETTING = 0.730000
PRIORITY 0.000000
RULE AAAAAAAAAAAAAAAAAAAA2
IF NODE AAAAAAAAAAAAAE2 HEAD > -2.910000
AND NODE AAAAAAAAAAAAAE2 HEAD <= -2.740000
THEN ORIFICE AAAAAAAAAAAAAAAA- SETTING = 0.870000
PRIORITY 0.000000
RULE AAAAAAAAAAAAAAAAF0
IF NODE AAAAAAAAAAAAAE2 HEAD <= -2.910000
THEN ORIFICE AAAAAAAAAAAAAAAA- SETTING = 1.000000
PRIORITY 0.000000
RULE AAAAAAAAAAAAAAAAF1
IF NODE AAAAAAAAAAAAAE4 HEAD >= 38.720000
THEN ORIFICE AAAAAAAAAAAAAAAAB6 SETTING = 0.000000
PRIORITY 0.000000
RULE AAAAAAAAAAAAAAAAAAA-
IF NODE AAAAAAAAAAAAAE4 HEAD > 38.500000
AND NODE AAAAAAAAAAAAAE4 HEAD < 38.720000
THEN ORIFICE AAAAAAAAAAAAAAAAB6 SETTING = 0.200000
PRIORITY 0.000000
RULE AAAAAAAAAAAAAAAAAAA_
IF NODE AAAAAAAAAAAAAE4 HEAD > 38.280000
AND NODE AAAAAAAAAAAAAE4 HEAD <= 38.500000
THEN ORIFICE AAAAAAAAAAAAAAAAB6 SETTING = 0.400000
PRIORITY 0.000000
RULE AAAAAAAAAAAAAAAAAAB0
IF NODE AAAAAAAAAAAAAE4 HEAD > 38.060000
AND NODE AAAAAAAAAAAAAE4 HEAD <= 38.280000
THEN ORIFICE AAAAAAAAAAAAAAAAB6 SETTING = 0.600000
PRIORITY 0.000000
RULE AAAAAAAAAAAAAAAAAAB1
IF NODE AAAAAAAAAAAAAE4 HEAD > 37.840000
AND NODE AAAAAAAAAAAAAE4 HEAD <= 38.060000
THEN ORIFICE AAAAAAAAAAAAAAAAB6 SETTING = 0.800000
PRIORITY 0.000000
RULE AAAAAAAAAAAAAAAAF2
IF NODE AAAAAAAAAAAAAE4 HEAD <= 37.840000
THEN ORIFICE AAAAAAAAAAAAAAAAB6 SETTING = 1.000000
PRIORITY 0.000000



































RULE AAAAAAAAAAAAAAAAF3
IF NODE AAAAAAAAAAAAAE6 HEAD >= 49.430000
THEN ORIFICE AAAAAAAAAAAAAAAAB_ SETTING = 0.000000
PRIORITY 0.000000
RULE AAAAAAAAAAAAAAAAAAB2
IF NODE AAAAAAAAAAAAAE6 HEAD > 49.210000
AND NODE AAAAAAAAAAAAAE6 HEAD < 49.430000
THEN ORIFICE AAAAAAAAAAAAAAAAB_ SETTING = 0.200000
PRIORITY 0.000000
RULE AAAAAAAAAAAAAAAAAAB3
IF NODE AAAAAAAAAAAAAE6 HEAD > 48.990000
AND NODE AAAAAAAAAAAAAE6 HEAD <= 49.210000
THEN ORIFICE AAAAAAAAAAAAAAAAB_ SETTING = 0.400000
PRIORITY 0.000000
RULE AAAAAAAAAAAAAAAAAAB4
IF NODE AAAAAAAAAAAAAE6 HEAD > 48.760000
AND NODE AAAAAAAAAAAAAE6 HEAD <= 48.990000
THEN ORIFICE AAAAAAAAAAAAAAAAB_ SETTING = 0.600000
PRIORITY 0.000000
RULE AAAAAAAAAAAAAAAAAAB5
IF NODE AAAAAAAAAAAAAE6 HEAD > 48.540000
AND NODE AAAAAAAAAAAAAE6 HEAD <= 48.760000
THEN ORIFICE AAAAAAAAAAAAAAAAB_ SETTING = 0.800000
PRIORITY 0.000000
RULE AAAAAAAAAAAAAAAAF4
IF NODE AAAAAAAAAAAAAE6 HEAD <= 48.540000
THEN ORIFICE AAAAAAAAAAAAAAAAB_ SETTING = 1.000000
PRIORITY 0.000000
RULE AAAAAAAAE_
IF NODE AAAAAAAAAAAAE4 DEPTH <= 8.300000
THEN WEIR AAAAAAAAAAAAAAAAE6 SETTING = 0.000000
ELSE WEIR AAAAAAAAAAAAAAAAE6 SETTING = 1.000000
PRIORITY 0.000000
























RULE AAAAAAAAAAAAAAAAAAAAA8
IF SIMULATION TIME = 0
THEN ORIFICE AAAAAC4 SETTING = 0.000000
PRIORITY 0.000000
RULE AAAAAAAAAAAAAAAAAAAAA9
IF SIMULATION TIME = 0
THEN ORIFICE AAAAAC3 SETTING = 0.000000
PRIORITY 0.000000
RULE AAAAAAAAAAAAAAAAAAAAA-
IF SIMULATION TIME = 0
THEN ORIFICE AAAAAC2 SETTING = 1.000000
PRIORITY 0.000000
RULE AAAAAAAAAAAAAAC2
IF NODE AA3 HEAD > 15.00
THEN ORIFICE AAAAAAAAAAAAAAAAC_ SETTING = 0.000000
ELSE ORIFICE AAAAAAAAAAAAAAAAC_ SETTING = 1.000000
PRIORITY 0
RULE AAAAAAAAAAAAAAAD2
IF NODE AA3 HEAD > 15.00
THEN ORIFICE AAAAAAAAAAAAAAAAD0 SETTING = 0.000000
ELSE ORIFICE AAAAAAAAAAAAAAAAD0 SETTING = 1.000000
RULE AAAAAAAAAAAAAAAD3
IF NODE AA3 HEAD > 15.00
THEN ORIFICE AAAAAAAAAAAAAAAAD1 SETTING = 0.000000
ELSE ORIFICE AAAAAAAAAAAAAAAAD1 SETTING = 1.000000
RULE AAAAAAAAAAAAAAAD4
IF SIMULATION TIME = 0
THEN ORIFICE AAAAAAAAAAAAAAAAAAAAAAAAA0 SETTING = 0
AND ORIFICE AAAAAAAAAAAAAAAAAAAAAAAAA1 SETTING = 0
AND ORIFICE AAAAAAAAAAAAAAAAAAAAAAAAA2 SETTING = 0
AND ORIFICE AAAAAAAAAAAAAAAAAAAAAAAAA3 SETTING = 0
AND ORIFICE AAAAAAAAAAAAAAAAAAAAAAAAA4 SETTING = 0
AND ORIFICE AAAAAAAAAAAAAAAAAAAAAAAAA5 SETTING = 0
AND ORIFICE AAAAAAAAAAAAAAAAAAAAAAAAA6 SETTING = 0
AND ORIFICE AAAAAAAAAAAAAAAAAAAAAAAAA7 SETTING = 0

[DWF]


AAAE3            FLOW             0.2385     "AAAAAAC3" "AAAAAAAAAAH0" "AAAAAAAAAAG_" ""
AAAAL6           FLOW             3.5799     "AAAAAAC3" "AAAAAAAAAAH0" "AAAAAAAAAAG_" ""
AAAAAAAAAAAAB1   FLOW             0.1041     "AAAAAAC0" "AAAAAAAAAAG6" "AAAAAAAAAAG5" ""
AAAAAAAAAAAAAAA6 FLOW             0.0259     "AAAAAAB_" "AAAAAAAAAAG4" "AAAAAAAAAAG3" ""
AAAAAAAAAAAAAE0  FLOW             0.5849     "AAAAAAB_" "AAAAAAAAAAG4" "AAAAAAAAAAG3" ""
AAAAAAAAAB1      FLOW             0.9921     "AAAAAAC3" "AAAAAAAAAAH0" "AAAAAAAAAAG_" ""
AAAAAAAAAC7      FLOW             0.1415     "AAAAAAC3" "AAAAAAAAAAH0" "AAAAAAAAAAG_" ""
AAAAAAAAAC9      FLOW             0.2805     "AAAAAAC3" "AAAAAAAAAAH0" "AAAAAAAAAAG_" ""
AAAAAAAAAD0      FLOW             0.148      "AAAAAAC3" "AAAAAAAAAAH0" "AAAAAAAAAAG_" ""
AAAAAAAAAD9      FLOW             0.0078     "AAAAAAC0" "AAAAAAAAAAG6" "AAAAAAAAAAG5" ""
AAAAAAAAAD-      FLOW             0.1855     "AAAAAAC3" "AAAAAAAAAAH0" "AAAAAAAAAAG_" ""
AAAAAAAAAE2      FLOW             0.0103     "AAAAAAC0" "AAAAAAAAAAG6" "AAAAAAAAAAG5" ""
AAAAAAAAAE-      FLOW             0.0498     "AAAAAAC0" "AAAAAAAAAAG6" "AAAAAAAAAAG5" ""
AAAAAAAAAF-      FLOW             0.0633     "AAAAAAC0" "AAAAAAAAAAG6" "AAAAAAAAAAG5" ""
AAAAAAAAAG4      FLOW             0.009      "AAAAAAC0" "AAAAAAAAAAG6" "AAAAAAAAAAG5" ""
AAAAAAAAAI4      FLOW             0.1771     "AAAAAAC0" "AAAAAAAAAAG6" "AAAAAAAAAAG5" ""
AAAAAAAAAI5      FLOW             0.2385     "AAAAAAC0" "AAAAAAAAAAG6" "AAAAAAAAAAG5" ""
AAAAAAAAAI7      FLOW             0.6883     "AAAAAAC3" "AAAAAAAAAAH0" "AAAAAAAAAAG_" ""
AAAAAAAAAJ3      FLOW             0.7387     "AAAAAAC3" "AAAAAAAAAAH0" "AAAAAAAAAAG_" ""
AAAAAAAAAJ6      FLOW             0.2637     "AAAAAAC3" "AAAAAAAAAAH0" "AAAAAAAAAAG_" ""
AAAAAAAAAK4      FLOW             0.3232     "AAAAAAC3" "AAAAAAAAAAH0" "AAAAAAAAAAG_" ""
AAAAAAAAAL2      FLOW             0.7478     "AAAAAAC3" "AAAAAAAAAAH0" "AAAAAAAAAAG_" ""
AAAAAAAAAL3      FLOW             0.5371     "AAAAAAC4" "AAAAAAAAAAH2" "AAAAAAAAAAH1" ""
AAAAAAAAAM1      FLOW             1.3825     "AAAAAAC3" "AAAAAAAAAAH0" "AAAAAAAAAAG_" ""
AAAAAAAAAM6      FLOW             0.0853     "AAAAAAC0" "AAAAAAAAAAG6" "AAAAAAAAAAG5" ""
AAAAAAAAAM8      FLOW             0.042      "AAAAAAC0" "AAAAAAAAAAG6" "AAAAAAAAAAG5" ""
AAAAAAAAAM-      FLOW             0.0019     "AAAAAAC0" "AAAAAAAAAAG6" "AAAAAAAAAAG5" ""
AAAAAAAAAO0      FLOW             0.4001     "AAAAAAC0" "AAAAAAAAAAG6" "AAAAAAAAAAG5" ""
AAAAAAAAAO2      FLOW             0.0704     "AAAAAAC0" "AAAAAAAAAAG6" "AAAAAAAAAAG5" ""
AAAAAAAAAO4      FLOW             0.0349     "AAAAAAC0" "AAAAAAAAAAG6" "AAAAAAAAAAG5" ""
AAAAAAAAAO6      FLOW             0.0976     "AAAAAAB_" "AAAAAAAAAAG4" "AAAAAAAAAAG3" ""
AAAAAAAAAO8      FLOW             0.0834     "AAAAAAB_" "AAAAAAAAAAG4" "AAAAAAAAAAG3" ""
AAAAAAAAAO9      FLOW             0.0892     "AAAAAAB_" "AAAAAAAAAAG4" "AAAAAAAAAAG3" ""
AAAAAAAAAQ3      FLOW             0.0226     "AAAAAAB_" "AAAAAAAAAAG4" "AAAAAAAAAAG3" ""
AAAAAAAAAQ7      FLOW             0.0801     "AAAAAAB_" "AAAAAAAAAAG4" "AAAAAAAAAAG3" ""
AAAAAAAAAR3      FLOW             0.0989     "AAAAAAB_" "AAAAAAAAAAG4" "AAAAAAAAAAG3" ""
AAAAAAAAAS6      FLOW             0.009      "AAAAAAB_" "AAAAAAAAAAG4" "AAAAAAAAAAG3" ""
AAAAAAAAAS8      FLOW             0.1383     "AAAAAAB_" "AAAAAAAAAAG4" "AAAAAAAAAAG3" ""
AAAAAAAAAT5      FLOW             0.221      "AAAAAAB_" "AAAAAAAAAAG4" "AAAAAAAAAAG3" ""
AAAAAAAAAU_      FLOW             0.0491     "AAAAAAB_" "AAAAAAAAAAG4" "AAAAAAAAAAG3" ""
AAAAAAAAAW6      FLOW             0.0478     "AAAAAAB_" "AAAAAAAAAAG4" "AAAAAAAAAAG3" ""
AAAAAAAAAW-      FLOW             0.0368     "AAAAAAB_" "AAAAAAAAAAG4" "AAAAAAAAAAG3" ""
AAAAAAAAAX0      FLOW             0.0271     "AAAAAAB_" "AAAAAAAAAAG4" "AAAAAAAAAAG3" ""
AAAAAAAAAZ0      FLOW             0.0427     "AAAAAAB_" "AAAAAAAAAAG4" "AAAAAAAAAAG3" ""
AAAAAAAAAZ5      FLOW             0.1118     "AAAAAAB_" "AAAAAAAAAAG4" "AAAAAAAAAAG3" ""
AAAAAAAAAZ_      FLOW             0.0362     "AAAAAAB_" "AAAAAAAAAAG4" "AAAAAAAAAAG3" ""
AAAAAAAAA0A      FLOW             0.1538     "AAAAAAB_" "AAAAAAAAAAG4" "AAAAAAAAAAG3" ""
AAAAAAAAA0C      FLOW             0.0323     "AAAAAAB_" "AAAAAAAAAAG4" "AAAAAAAAAAG3" ""
AAAAAAAAA0F      FLOW             0.0084     "AAAAAAB_" "AAAAAAAAAAG4" "AAAAAAAAAAG3" ""
AAAAAAAAA0Q      FLOW             0.2294     "AAAAAAB_" "AAAAAAAAAAG4" "AAAAAAAAAAG3" ""
AAAAAAAAA1N      FLOW             0.0142     "AAAAAC5" "AAAAAAAACO7" "AAAAAAAACO6" ""
AAAAAAAAA1R      FLOW             0.0103     "AAAAAC5" "AAAAAAAACO7" "AAAAAAAACO6" ""
AAAAAAAAA1V      FLOW             0.0873     "AAAAAAB_" "AAAAAAAAAAG4" "AAAAAAAAAAG3" ""
AAAAAAAAA16      FLOW             0.0239     "AAAAAAB_" "AAAAAAAAAAG4" "AAAAAAAAAAG3" ""
AAAAAAAAA2F      FLOW             0.0194     "AAAAAC5" "AAAAAAAACO7" "AAAAAAAACO6" ""
AAAAAAAAA2J      FLOW             0.0543     "AAAAAAB_" "AAAAAAAAAAG4" "AAAAAAAAAAG3" ""
AAAAAAAAA2P      FLOW             0.1687     "AAAAAAB_" "AAAAAAAAAAG4" "AAAAAAAAAAG3" ""
AAAAAAAAA2V      FLOW             0.0536     "AAAAAAC4" "AAAAAAAAAAH2" "AAAAAAAAAAH1" ""
AAAAAAAAA25      FLOW             0.0414     "AAAAAAC4" "AAAAAAAAAAH2" "AAAAAAAAAAH1" ""
AAAAAAAAA27      FLOW             1.2403     "AAAAAAC2" "AAAAAAAAAAG-" "AAAAAAAAAAG9" ""
AAAAAAAAA28      FLOW             0.2029     "AAAAAAC3" "AAAAAAAAAAH0" "AAAAAAAAAAG_" ""
AAAAAAAAA29      FLOW             0.2178     "AAAAAAC3" "AAAAAAAAAAH0" "AAAAAAAAAAG_" ""
AAAAAAAAA3C      FLOW             0.2579     "AAAAAAC3" "AAAAAAAAAAH0" "AAAAAAAAAAG_" ""
AAAAAAAAA3P      FLOW             0.1952     "AAAAAAC3" "AAAAAAAAAAH0" "AAAAAAAAAAG_" ""
AAAAAAAAA3T      FLOW             0.5629     "AAAAAAC3" "AAAAAAAAAAH0" "AAAAAAAAAAG_" ""
AAAAAAAAA3Z      FLOW             0.1286     "AAAAAAB_" "AAAAAAAAAAG4" "AAAAAAAAAAG3" ""
AAAAAAAAA4E      FLOW             0.0252     "AAAAAAC5" "AAAAAAAAAAH4" "AAAAAAAAAAH3" ""
AAAAAAAAA4G      FLOW             0.2514     "AAAAAAC5" "AAAAAAAAAAH4" "AAAAAAAAAAH3" ""
AAAAAAAAA4J      FLOW             0.2967     "AAAAAAC3" "AAAAAAAAAAH0" "AAAAAAAAAAG_" ""
AAAAAAAAA4P      FLOW             0.7019     "AAAAAAC3" "AAAAAAAAAAH0" "AAAAAAAAAAG_" ""
AAAAAAAAA4Q      FLOW             1.2648     "AAAAAAC3" "AAAAAAAAAAH0" "AAAAAAAAAAG_" ""
AAAAAAAAA4X      FLOW             0.2113     "AAAAAAC3" "AAAAAAAAAAH0" "AAAAAAAAAAG_" ""
AAAAAAAAA5H      FLOW             0.6754     "AAAAAAC6" "AAAAAAAAAAH6" "AAAAAAAAAAH5" ""
AAAAAAAAA5I      FLOW             1.1084     "AAAAAAC5" "AAAAAAAAAAH4" "AAAAAAAAAAH3" ""
AAAAAAAAA50      FLOW             0.2857     "AAAAAAC5" "AAAAAAAAAAH4" "AAAAAAAAAAH3" ""
AAAAAAAAA59      FLOW             1.5014     "AAAAAAC3" "AAAAAAAAAAH0" "AAAAAAAAAAG_" ""
AAAAAAAAA6B      FLOW             0.3148     "AAAAAAC3" "AAAAAAAAAAH0" "AAAAAAAAAAG_" ""
AAAAAAAAA6Y      FLOW             0.1144     "AAAAAAC3" "AAAAAAAAAAH0" "AAAAAAAAAAG_" ""
AAAAAAAAAAB5     FLOW             0.3859     "AAAAAAC3" "AAAAAAAAAAH0" "AAAAAAAAAAG_" ""
AAAAAAAAA62      FLOW             0.4582     "AAAAAAC3" "AAAAAAAAAAH0" "AAAAAAAAAAG_" ""
AAAAAAAAA7D      FLOW             0.0194     "AAAAAC5" "AAAAAAAACO7" "AAAAAAAACO6" ""
AAAAAAAAA7G      FLOW             0.9481     "AAAAAC5" "AAAAAAAACO7" "AAAAAAAACO6" ""
AAAAAAAAA7H      FLOW             2.2098     "AAAAAAC1" "AAAAAAAAAAG8" "AAAAAAAAAAG7" ""
AAAAAAAAA7J      FLOW             0.0595     "AAAAAC5" "AAAAAAAACO7" "AAAAAAAACO6" ""
AAAAAAAAA7K      FLOW             0.022      "AAAAAC5" "AAAAAAAACO7" "AAAAAAAACO6" ""
AAAAAAAAA70      FLOW             0.0284     "AAAAAC5" "AAAAAAAACO7" "AAAAAAAACO6" ""
AAAAAAAAA71      FLOW             0.285      "AAAAAC5" "AAAAAAAACO7" "AAAAAAAACO6" ""
AAAAAAAAA78      FLOW             0.0136     "AAAAAC5" "AAAAAAAACO7" "AAAAAAAACO6" ""
AAAAAAAAA8D      FLOW             0.0595     "AAAAAC5" "AAAAAAAACO7" "AAAAAAAACO6" ""
AAAAAAAAA8H      FLOW             0.0898     "AAAAAC5" "AAAAAAAACO7" "AAAAAAAACO6" ""
AAAAAAAAA8J      FLOW             2.0055     "AAAAAAB-" "AAAAAAAAAAG2" "AAAAAAAAAAG1" ""
AAAAAAAAA8P      FLOW             0.0692     "AAAAAAC7" "AAAAAAAAAAH8" "AAAAAAAAAAH7" ""
AAAAAAAAA8Q      FLOW             0.0569     "AAAAAAC7" "AAAAAAAAAAH8" "AAAAAAAAAAH7" ""
AAAAAAAAA8Z      FLOW             0.0233     "AAAAAAC7" "AAAAAAAAAAH8" "AAAAAAAAAAH7" ""
AAAAAAAAA81      FLOW             0.1461     "AAAAAAB-" "AAAAAAAAAAG2" "AAAAAAAAAAG1" ""
AAAAAAAAA82      FLOW             0.0827     "AAAAAAB-" "AAAAAAAAAAG2" "AAAAAAAAAAG1" ""
AAAAAAAAA83      FLOW             0.0168     "AAAAAAB-" "AAAAAAAAAAG2" "AAAAAAAAAAG1" ""
AAAAAAAAA9E      FLOW             0.086      "AAAAAC5" "AAAAAAAACO7" "AAAAAAAACO6" ""
AAAAAAAAAAB6     FLOW             0.0213     "AAAAAC5" "AAAAAAAACO7" "AAAAAAAACO6" ""
AAAAAAAAA9G      FLOW             0.0291     "AAAAAC5" "AAAAAAAACO7" "AAAAAAAACO6" ""
AAAAAAAAA9H      FLOW             0.2669     "AAAAAC5" "AAAAAAAACO7" "AAAAAAAACO6" ""
AAAAAAAAA9O      FLOW             0.0381     "AAAAAC5" "AAAAAAAACO7" "AAAAAAAACO6" ""
AAAAAAAAA9W      FLOW             0.009      "AAAAAC5" "AAAAAAAACO7" "AAAAAAAACO6" ""
AAAAAAAAA9_      FLOW             0.1183     "AAAAAC5" "AAAAAAAACO7" "AAAAAAAACO6" ""
AAAAAAAAA-M      FLOW             0.0704     "AAAAAAC7" "AAAAAAAAAAH8" "AAAAAAAAAAH7" ""
AAAAAAAAA-Q      FLOW             1.621      "AAAAAAC7" "AAAAAAAAAAH8" "AAAAAAAAAAH7" ""
AAAAAAAAA-R      FLOW             2.2266     "AAAAAAC7" "AAAAAAAAAAH8" "AAAAAAAAAAH7" ""
AAAAAAAAA-U      FLOW             0.2572     "AAAAAAB8" "AAAAAAAAAAF-" "AAAAAAAAAAF9" ""
AAAAAAAAA-W      FLOW             1.0567     "AAAAAAB8" "AAAAAAAAAAF-" "AAAAAAAAAAF9" ""
AAAAAAAAA-X      FLOW             0.6812     "AAAAAAB9" "AAAAAAAAAAG0" "AAAAAAAAAAF_" ""
AAAAAAAAA-0      FLOW             0.9404     "AAAAAC5" "AAAAAAAACO7" "AAAAAAAACO6" ""
AAAAAAAAA-6      FLOW             0.1687     "AAAAAAC5" "AAAAAAAAAAH4" "AAAAAAAAAAH3" ""
AAAAAAAAA-_      FLOW             0.9268     "AAAAAAC3" "AAAAAAAAAAH0" "AAAAAAAAAAG_" ""
AAAAAAAAAAB8     FLOW             0.1558     "AAAAAAC3" "AAAAAAAAAAH0" "AAAAAAAAAAG_" ""
AAAAAAAAA_N      FLOW             0.8544     "AAAAAAC3" "AAAAAAAAAAH0" "AAAAAAAAAAG_" ""
AAAAAAAABB7      FLOW             0.5235     "AAAAAAC3" "AAAAAAAAAAH0" "AAAAAAAAAAG_" ""
AAAAAAAABC1      FLOW             0.0853     "AAAAAAC0" "AAAAAAAAAAG6" "AAAAAAAAAAG5" ""
AAAAAAAABD6      FLOW             0.1338     "AAAAAAC3" "AAAAAAAAAAH0" "AAAAAAAAAAG_" ""
AAAAAAAABD7      FLOW             0.0401     "AAAAAAB_" "AAAAAAAAAAG4" "AAAAAAAAAAG3" ""
AAAAAAAABD8      FLOW             0.3186     "AAAAAAB-" "AAAAAAAAAAG2" "AAAAAAAAAAG1" ""

[HYDROGRAPHS]


AAAAAAAAAAAAAAAAAAAAAAAA0 AAAAAAAAAAAAAAAAAAAAA3
AAAAAAAAAAAAAAAAAAAAAAAA0 All              Short    0.0035   0.3      2        0.3      0.1      0.05
AAAAAAAAAAAAAAAAAAAAAAAA0 All              Medium   0.003    0.9      2.5      0.3      0.1      0.05
AAAAAAAAAAAAAAAAAAAAAAAA0 All              Long     0.007    3        5        0.3      0.1      0.05
AAAAAAAAAAAAAAAAF5 AA1
AAAAAAAAAAAAAAAAF5 All              Short    0.0035   0.3      2        0.3      0.1      0.05
AAAAAAAAAAAAAAAAF5 All              Medium   0.003    0.9      2.5      0.3      0.1      0.05
AAAAAAAAAAAAAAAAF5 All              Long     0.007    3        5        0.3      0.1      0.05
AAAAAAAAAAAAAH4  AAAAAAAAAAAAAAAAAAAAA0
AAAAAAAAAAAAAH4  All              Short    0        0.3      2        0.1      0.02     0
AAAAAAAAAAAAAH4  All              Medium   0.005    0.9      2.5      0.1      0.02     0
AAAAAAAAAAAAAH4  All              Long     0.005    3        5        0.1      0.02     0
AAAAAAAAAAAAAAC3 AAAAAAAAAAAAAAAAAAAAA0
AAAAAAAAAAAAAAC3 All              Short    0        0.3      2        0.1      0.02     0
AAAAAAAAAAAAAAC3 All              Medium   0.005    0.9      2.5      0.1      0.02     0
AAAAAAAAAAAAAAC3 All              Long     0.005    3        5        0.1      0.02     0
AAAAAAAAAAAAAAC4 AAAAAAAAAAAAAAAAAAAAA0
AAAAAAAAAAAAAAC4 All              Short    0.0025   0.25     2.9      0.3      0.1      0.05
AAAAAAAAAAAAAAC4 All              Medium   0.007    1        3        0.3      0.1      0.05
AAAAAAAAAAAAAAC4 All              Long     0.01     3.6      3        0.3      0.1      0.05
AAAAAAAAAAAAAAC5 AAAAAAAAAAAAAAAAAAAAA0
AAAAAAAAAAAAAAC5 All              Short    0        0.3      2        0.3      0.1      0.05
AAAAAAAAAAAAAAC5 All              Medium   0.008    0.9      2.5      0.3      0.1      0.05
AAAAAAAAAAAAAAC5 All              Long     0.01     3        5        0.3      0.1      0.05
AAAAAAAAAAAAAAC6 AAAAAAAAAAAAAAAAAAAAA0
AAAAAAAAAAAAAAC6 All              Short    0        0.3      2        0.1      0.02     0
AAAAAAAAAAAAAAC6 All              Medium   0.005    0.9      2.5      0.1      0.02     0
AAAAAAAAAAAAAAC6 All              Long     0.005    3        5        0.1      0.02     0
AAAAAAAAAAAAAAC7 AAAAAAAAAAAAAAAAAAAAA0
AAAAAAAAAAAAAAC7 All              Short    0.001    0.3      2.5      0.4      0.02     0
AAAAAAAAAAAAAAC7 All              Medium   0.009    1        2.5      0.4      0.02     0
AAAAAAAAAAAAAAC7 All              Long     0.015    3.5      5        0.4      0.02     0
AAAAAAAAAAAAAAC8 AAAAAAAAAAAAAAAAAAAAA0
AAAAAAAAAAAAAAC8 All              Short    0.0025   0.25     2.9      0.3      0.1      0.05
AAAAAAAAAAAAAAC8 All              Medium   0.007    1        3        0.3      0.1      0.05
AAAAAAAAAAAAAAC8 All              Long     0.01     3.6      3        0.3      0.1      0.05
AAAAAAAAAAAAAAC9 AAAAAAAAAAAAAAAAAAAAA0
AAAAAAAAAAAAAAC9 All              Short    0.0035   0.3      2        0.3      0.1      0.05
AAAAAAAAAAAAAAC9 All              Medium   0.003    0.9      2.5      0.3      0.1      0.05
AAAAAAAAAAAAAAC9 All              Long     0.007    3        5        0.3      0.1      0.05
AAAAAAAAAAAAAH5  AAAAAAAAAAAAAAAAAAAAA1
AAAAAAAAAAAAAH5  All              Short    0        0.3      2        0.3      0.1      0.05
AAAAAAAAAAAAAH5  All              Medium   0.008    0.9      2.5      0.3      0.1      0.05
AAAAAAAAAAAAAH5  All              Long     0.03     3        5        0.3      0.1      0.05
AAAAAAAAAAAAAH6  AAAAAAAAAAAAAAAAAAAAA1
AAAAAAAAAAAAAH6  All              Short    0.0035   0.3      2        0.3      0.1      0.05
AAAAAAAAAAAAAH6  All              Medium   0.003    0.9      2.5      0.3      0.1      0.05
AAAAAAAAAAAAAH6  All              Long     0.007    3        5        0.3      0.1      0.05
AAAAAAAAAAAAAAC- AAAAAAAAAAAAAAAAAAAAA1
AAAAAAAAAAAAAAC- All              Short    0.002    0.3      2        0.5      0.02     0
AAAAAAAAAAAAAAC- All              Medium   0.006    0.9      3        0.5      0.02     0
AAAAAAAAAAAAAAC- All              Long     0.03     3.6      6        0.5      0.02     0
AAAAAAAAAAAAAAC_ AAAAAAAAAAAAAAAAAAAAA1
AAAAAAAAAAAAAAC_ All              Short    0.0035   0.3      2        0.3      0.1      0.05
AAAAAAAAAAAAAAC_ All              Medium   0.003    0.9      2.5      0.3      0.1      0.05
AAAAAAAAAAAAAAC_ All              Long     0.007    3        5        0.3      0.1      0.05
AAAAAAAAAAAAAH7  AAAAAAAAAAAAAAAAAAAAA2
AAAAAAAAAAAAAH7  All              Short    0        0.3      2        0.3      0.1      0.05
AAAAAAAAAAAAAH7  All              Medium   0.008    0.9      2.5      0.3      0.1      0.05
AAAAAAAAAAAAAH7  All              Long     0.03     3        5        0.3      0.1      0.05
AAAAAAAAAAAAAAD0 AAAAAAAAAAAAAAAAAAAAA2
AAAAAAAAAAAAAAD0 All              Short    0        0.3      2        0.3      0.1      0.05
AAAAAAAAAAAAAAD0 All              Medium   0.008    0.9      2.5      0.3      0.1      0.05
AAAAAAAAAAAAAAD0 All              Long     0.03     3        5        0.3      0.1      0.05
AAAAAAAAAAAAAAD1 AAAAAAAAAAAAAAAAAAAAA2
AAAAAAAAAAAAAAD1 All              Short    0.0002   0.3      2        0.3      0.02     0.05
AAAAAAAAAAAAAAD1 All              Medium   0.002    0.9      4        0.3      0.02     0.05
AAAAAAAAAAAAAAD1 All              Long     0.008    4        5        0.3      0.02     0.05
AAAAAAAAAAAAAAD2 AAAAAAAAAAAAAAAAAAAAA3
AAAAAAAAAAAAAAD2 All              Short    0.0001   0.5      2        0.8      0.02     0
AAAAAAAAAAAAAAD2 All              Medium   0.0008   1.5      2.5      0.8      0.02     0
AAAAAAAAAAAAAAD2 All              Long     0.015    5.2      6        0.8      0.02     0
AAAAAAAAAAAAAAD3 AAAAAAAAAAAAAAAAAAAAA3
AAAAAAAAAAAAAAD3 All              Short    0.0002   0.3      2        0.3      0.02     0.05
AAAAAAAAAAAAAAD3 All              Medium   0.002    0.9      4        0.3      0.02     0.05
AAAAAAAAAAAAAAD3 All              Long     0.008    4        5        0.3      0.02     0.05
AAAAAAAAAAAAAAD4 AAAAAAAAAAAAAAAAAAAAA3
AAAAAAAAAAAAAAD4 All              Short    0.0001   0.5      2        0.8      0.02     0
AAAAAAAAAAAAAAD4 All              Medium   0.0008   1.5      2.5      0.8      0.02     0
AAAAAAAAAAAAAAD4 All              Long     0.015    5.2      6        0.8      0.02     0
AAAAAAAAAAAAAAD5 AAAAAAAAAAAAAAAAAAAAA3
AAAAAAAAAAAAAAD5 All              Short    0.00015  0.3      2        0.6      0.02     0
AAAAAAAAAAAAAAD5 All              Medium   0.0004   0.9      2.5      0.6      0.02     0
AAAAAAAAAAAAAAD5 All              Long     0.002    3        5        0.6      0.02     0
AAAAAAAAAAAAAAD6 AAAAAAAAAAAAAAAAAAAAA3
AAAAAAAAAAAAAAD6 All              Short    0.0002   0.3      2        0.3      0.02     0.05
AAAAAAAAAAAAAAD6 All              Medium   0.002    0.9      4        0.3      0.02     0.05
AAAAAAAAAAAAAAD6 All              Long     0.008    4        5        0.3      0.02     0.05
AAAAAAAAAAAAF6   AA1
AAAAAAAAAAAAF6   All              Short    0        0.3      2        0.3      0.1      0.05
AAAAAAAAAAAAF6   All              Medium   0.008    0.9      2.5      0.3      0.1      0.05
AAAAAAAAAAAAF6   All              Long     0.01     3        5        0.3      0.1      0.05
AAAAAAAAAAAAF7   AA1
AAAAAAAAAAAAF7   All              Short    0        0.3      2        0.3      0.1      0.05
AAAAAAAAAAAAF7   All              Medium   0.005    0.9      2.5      0.3      0.1      0.05
AAAAAAAAAAAAF7   All              Long     0.008    3        5        0.3      0.1      0.05
AAAAAAAAAAAAF8   AA1
AAAAAAAAAAAAF8   All              Short    0        0.3      2        0.3      0.1      0.05
AAAAAAAAAAAAF8   All              Medium   0.003    0.9      2.5      0.3      0.1      0.05
AAAAAAAAAAAAF8   All              Long     0.008    3        6        0.3      0.1      0.05
AAAAAAAAAAAAF9   AA1
AAAAAAAAAAAAF9   All              Short    0        0.3      2        0.3      0.1      0.05
AAAAAAAAAAAAF9   All              Medium   0.008    0.9      2.5      0.3      0.1      0.05
AAAAAAAAAAAAF9   All              Long     0.01     3        5        0.3      0.1      0.05
AAAAAAAAAAAAF-   AA1
AAAAAAAAAAAAF-   All              Short    0        0.3      2        0.1      0.02     0
AAAAAAAAAAAAF-   All              Medium   0.005    0.9      2.5      0.1      0.02     0
AAAAAAAAAAAAF-   All              Long     0.005    3        5        0.1      0.02     0
AAAAAAAAAAAAF_   AA1
AAAAAAAAAAAAF_   All              Short    0        0.3      2        0.3      0.1      0.05
AAAAAAAAAAAAF_   All              Medium   0.008    0.9      2.5      0.3      0.1      0.05
AAAAAAAAAAAAF_   All              Long     0.03     3        5        0.3      0.1      0.05
AAAAAAAAAAAAG0   AA1
AAAAAAAAAAAAG0   All              Short    0.0035   0.3      2        0.3      0.1      0.05
AAAAAAAAAAAAG0   All              Medium   0.003    0.9      2.5      0.3      0.1      0.05
AAAAAAAAAAAAG0   All              Long     0.007    3        5        0.3      0.1      0.05


[RDII]


AAAE3            AAAAAAAAAAAAF9   30.15
AAAAAAAAAA7      AAAAAAAAAAAAF-   3.4
AAAAL6           AAAAAAAAAAAAAAC5 2345.03
AAAAAAAAAAAAB1   AAAAAAAAAAAAAAC6 188.06
AAAAAAAAAAAAAAA6 AAAAAAAAAAAAF9   33.3
AAAAAAAAAAAAAE0  AAAAAAAAAAAAF9   18.54
AAAAAAAAAB1      AAAAAAAAAAAAF9   100.78
AAAAAAAAAC7      AAAAAAAAAAAAF9   23.96
AAAAAAAAAC9      AAAAAAAAAAAAF9   39.02
AAAAAAAAAD0      AAAAAAAAAAAAF9   21.09
AAAAAAAAAD2      AAAAAAAAAAAAF-   14.66
AAAAAAAAAD9      AAAAAAAAAAAAF-   3.64
AAAAAAAAAD-      AAAAAAAAAAAAF9   24.72
AAAAAAAAAE1      AAAAAAAAAAAAF-   22.32
AAAAAAAAAE2      AAAAAAAAAAAAAAC6 30.77
AAAAAAAAAE-      AAAAAAAAAAAAAAC6 105.56
AAAAAAAAAF6      AAAAAAAAAAAAAH4  3.74
AAAAAAAAAF-      AAAAAAAAAAAAAAC6 74.12
AAAAAAAAAG3      AAAAAAAAAAAAAH4  4.16
AAAAAAAAAG4      AAAAAAAAAAAAAAC3 61.52
AAAAAAAAAI2      AAAAAAAAAAAAF-   6.8
AAAAAAAAAI4      AAAAAAAAAAAAF-   78.36
AAAAAAAAAI5      AAAAAAAAAAAAF-   212.96
AAAAAAAAAI7      AAAAAAAAAAAAAAC5 222.37
AAAAAAAAAJ3      AAAAAAAAAAAAAAC5 197.94
AAAAAAAAAJ6      AAAAAAAAAAAAAAC5 129.77
AAAAAAAAAK4      AAAAAAAAAAAAF6   178.34
AAAAAAAAAL2      AAAAAAAAAAAAF6   79.62
AAAAAAAAAL3      AAAAAAAAAAAAF7   776.25
AAAAAAAAAM1      AAAAAAAAAAAAF6   264.16
AAAAAAAAAM6      AAAAAAAAAAAAF-   27.42
AAAAAAAAAM8      AAAAAAAAAAAAF-   16.86
AAAAAAAAAM-      AAAAAAAAAAAAF-   6.54
AAAAAAAAAAB0     AAAAAAAAAAAAF-   4.66
AAAAAAAAAN5      AAAAAAAAAAAAF-   6.81
AAAAAAAAAO0      AAAAAAAAAAAAF-   177.93
AAAAAAAAAO2      AAAAAAAAAAAAF-   55.88
AAAAAAAAAO4      AAAAAAAAAAAAF-   11.38
AAAAAAAAAO6      AAAAAAAAAAAAF9   58.61
AAAAAAAAAO8      AAAAAAAAAAAAF9   62.95
AAAAAAAAAO9      AAAAAAAAAAAAF9   73.14
AAAAAAAAAQ3      AAAAAAAAAAAAF9   20.27
AAAAAAAAAQ7      AAAAAAAAAAAAF9   42.44
AAAAAAAAAR3      AAAAAAAAAAAAF9   65.68
AAAAAAAAAS6      AAAAAAAAAAAAF9   12.58
AAAAAAAAAS8      AAAAAAAAAAAAF9   45.63
AAAAAAAAAT5      AAAAAAAAAAAAF9   76.73
AAAAAAAAAU_      AAAAAAAAAAAAF9   32.81
AAAAAAAAAW6      AAAAAAAAAAAAF9   14.36
AAAAAAAAAW-      AAAAAAAAAAAAF9   41.15
AAAAAAAAAX0      AAAAAAAAAAAAF9   23.66
AAAAAAAAAX6      AAAAAAAAAAAAF9   7.93
AAAAAAAAAX8      AAAAAAAAAAAAF9   7.66
AAAAAAAAAZ0      AAAAAAAAAAAAF9   27.45
AAAAAAAAAZ5      AAAAAAAAAAAAF9   60.38
AAAAAAAAAZ_      AAAAAAAAAAAAF9   34.73
AAAAAAAAA0A      AAAAAAAAAAAAF9   85.85
AAAAAAAAA0C      AAAAAAAAAAAAF9   27.3
AAAAAAAAA0F      AAAAAAAAAAAAF9   7.33
AAAAAAAAA0Q      AAAAAAAAAAAAF9   127.93
AAAAAAAAA1I      AAAAAAAAAAAAG0   25.51
AAAAAAAAA1N      AAAAAAAAAAAAG0   14.66
AAAAAAAAA1R      AAAAAAAAAAAAG0   9.93
AAAAAAAAA1S      AAAAAAAAAAAAF9   49.9
AAAAAAAAA1V      AAAAAAAAAAAAF9   24.62
AAAAAAAAA16      AAAAAAAAAAAAF9   3.25
AAAAAAAAA2F      AAAAAAAAAAAAG0   11.77
AAAAAAAAA2J      AAAAAAAAAAAAF9   29.31
AAAAAAAAA2P      AAAAAAAAAAAAF9   62.29
AAAAAAAAA2V      AAAAAAAAAAAAF7   61.92
AAAAAAAAA25      AAAAAAAAAAAAF7   39.65
AAAAAAAAA27      AAAAAAAAAAAAF8   1515.25
AAAAAAAAA28      AAAAAAAAAAAAF6   112.82
AAAAAAAAA29      AAAAAAAAAAAAAAC5 162.05
AAAAAAAAA3C      AAAAAAAAAAAAAAC5 88.99
AAAAAAAAA3P      AAAAAAAAAAAAF9   22.9
AAAAAAAAA3T      AAAAAAAAAAAAF9   195.72
AAAAAAAAA3Z      AAAAAAAAAAAAF6   99.66
AAAAAAAAA4B      AAAAAAAAAAAAAH4  2.98
AAAAAAAAA4E      AAAAAAAAAAAAAAC4 34.3
AAAAAAAAA4G      AAAAAAAAAAAAAAC8 272.78
AAAAAAAAA4J      AAAAAAAAAAAAAAC5 98.36
AAAAAAAAA4P      AAAAAAAAAAAAAAC5 201.12
AAAAAAAAA4Q      AAAAAAAAAAAAAAC5 425.98
AAAAAAAAA4X      AAAAAAAAAAAAAAC5 125.44
AAAAAAAAA5H      AAAAAAAAAAAAAAC7 847.49
AAAAAAAAA5I      AAAAAAAAAAAAAAC8 1358.03
AAAAAAAAA50      AAAAAAAAAAAAAAC8 350.38
AAAAAAAAA59      AAAAAAAAAAAAF6   180.76
AAAAAAAAA6B      AAAAAAAAAAAAF6   159.5
AAAAAAAAA6W      AAAAAAAAAAAAG0   3.65
AAAAAAAAA6Y      AAAAAAAAAAAAF9   22.4
AAAAAAAAAAB5     AAAAAAAAAAAAF6   144.61
AAAAAAAAA62      AAAAAAAAAAAAF9   182.79
AAAAAAAAA7B      AAAAAAAAAAAAG0   19.21
AAAAAAAAA7D      AAAAAAAAAAAAG0   33.13
AAAAAAAAA7F      AAAAAAAAAAAAAH6  3.96
AAAAAAAAA7G      AAAAAAAAAAAAAAC_ 1104.6
AAAAAAAAA7H      AAAAAAAAAAAAAAC- 3625.84
AAAAAAAAA7J      AAAAAAAAAAAAG0   150.2
AAAAAAAAA7K      AAAAAAAAAAAAG0   56.57
AAAAAAAAA70      AAAAAAAAAAAAG0   30.81
AAAAAAAAA71      AAAAAAAAAAAAG0   107.87
AAAAAAAAA78      AAAAAAAAAAAAG0   39.03
AAAAAAAAA8D      AAAAAAAAAAAAG0   122.76
AAAAAAAAA8H      AAAAAAAAAAAAG0   109.82
AAAAAAAAA8I      AAAAAAAAAAAAAH7  8.69
AAAAAAAAA8J      AAAAAAAAAAAAAAD0 2482.95
AAAAAAAAA8P      AAAAAAAAAAAAAAD1 85.57
AAAAAAAAA8Q      AAAAAAAAAAAAAAD1 58.06
AAAAAAAAA8S      AAAAAAAAAAAAAAD1 18.84
AAAAAAAAA8Z      AAAAAAAAAAAAAAD1 35.5
AAAAAAAAA81      AAAAAAAAAAAAAH5  252.52
AAAAAAAAA82      AAAAAAAAAAAAAH5  109.66
AAAAAAAAA83      AAAAAAAAAAAAAH5  42.89
AAAAAAAAA9E      AAAAAAAAAAAAG0   45.64
AAAAAAAAAAB6     AAAAAAAAAAAAG0   21.78
AAAAAAAAA9G      AAAAAAAAAAAAG0   11.82
AAAAAAAAA9H      AAAAAAAAAAAAG0   111.67
AAAAAAAAA9O      AAAAAAAAAAAAG0   15.82
AAAAAAAAA9W      AAAAAAAAAAAAG0   6.05
AAAAAAAAA92      AAAAAAAAAAAAF_   27.78
AAAAAAAAA9_      AAAAAAAAAAAAG0   48.9
AAAAAAAAA-M      AAAAAAAAAAAAAAD1 88.14
AAAAAAAAA-Q      AAAAAAAAAAAAAAD6 7396.14
AAAAAAAAA-R      AAAAAAAAAAAAAAD3 1393.13
AAAAAAAAA-U      AAAAAAAAAAAAAAD2 770.09
AAAAAAAAA-W      AAAAAAAAAAAAAAD4 2965.14
AAAAAAAAA-X      AAAAAAAAAAAAAAD5 6186.94
AAAAAAAAA-Z      AAAAAAAAAAAAAH6  8.6
AAAAAAAAA-0      AAAAAAAAAAAAAAC_ 1671.09
AAAAAAAAA-6      AAAAAAAAAAAAAAC4 238.21
AAAAAAAAA-_      AAAAAAAAAAAAF9   94.61
AAAAAAAAAAB8     AAAAAAAAAAAAF9   33.41
AAAAAAAAA_N      AAAAAAAAAAAAF6   410.7
AAAAAAAAA_O      AAAAAAAAAAAAF_   11.1
AAAAAAAABB7      AAAAAAAAAAAAAAC5 277.89
AAAAAAAABC1      AAAAAAAAAAAAF-   35
AAAAAAAABD6      AAAAAAAAAAAAF9   27.64
AAAAAAAABD7      AAAAAAAAAAAAF9   20.91
AAAAAAAABD8      AAAAAAAAAAAAAH5  335
AAAAAAAABE0      AAAAAAAAAAAAG0   11.67

[CURVES]









AAAAAAB5         Control    0          0.294
AAAAAAB5                    15.17      0.294
AAAAAAB5                    16.17      0.435
AAAAAAB5                    17.17      0.576
AAAAAAB5                    18.17      0.718
AAAAAAB5                    19.17      0.859
AAAAAAB5                    20.17      1








AAAAAAB6         Control    0          0.294
AAAAAAB6                    15.17      0.294
AAAAAAB6                    16.17      0.435
AAAAAAB6                    17.17      0.576
AAAAAAB6                    18.17      0.718
AAAAAAB6                    19.17      0.859
AAAAAAB6                    20.17      1


AAAAAAAAF0       Control    0          1
AAAAAAAAF0                  14.17      1
AAAAAAAAF0                  15.17      0
AAAAAAAAF0                  30         0




AAAAM9           Control    0          1
AAAAM9                      45.24      1
AAAAM9                      51.71      0.9
AAAAM9                      58.17      0.5
AAAAM9                      64.63      0.1
AAAAM9                      74.97      0
AAAAM9                      129.26     0

AAAAAAAAAAF2     Pump3      50         6.06
AAAAAAAAAAF2                85         4.32
AAAAAAAAAAF2                100        3.53
AAAAAAAAAAF2                110        2.88
AAAAAAAAAAF2                125        1.73

AAAAAAB7         Pump2      0          0
AAAAAAB7                    2          0
AAAAAAB7                    3          21.59
AAAAAAB7                    25         21.59

AAAAAAAAAAAAG1   Pump2      0          0
AAAAAAAAAAAAG1              3          0
AAAAAAAAAAAAG1              7          2.5
AAAAAAAAAAAAG1              9          5
AAAAAAAAAAAAG1              9.5        7.5
AAAAAAAAAAAAG1              15         7.5

AAAAAAAAAAAAAH8  Pump4      0          0
AAAAAAAAAAAAAH8             0.1        8
AAAAAAAAAAAAAH8             20         8

AAAAAAAAAAAAAAAD5 Pump4      0          0
AAAAAAAAAAAAAAAD5            0.1        4.5
AAAAAAAAAAAAAAAD5            20         4.5

AAAAAAAAAAAAAAAD6 Pump4      0          0
AAAAAAAAAAAAAAAD6            0.1        10.3
AAAAAAAAAAAAAAAD6            20         10.3

AAAAAAAAAAAAAAAAAAAA3 Pump4      0          0
AAAAAAAAAAAAAAAAAAAA3            0.1        6.5
AAAAAAAAAAAAAAAAAAAA3            20         6.5

AAAAAAAAAAAAAAAAAAAA4 Pump4      0          0
AAAAAAAAAAAAAAAAAAAA4            0.1        7.75
AAAAAAAAAAAAAAAAAAAA4            20         7.75

AAAAAAAAAAAAAAAAAAAA5 Pump4      0          0
AAAAAAAAAAAAAAAAAAAA5            0.1        8.4
AAAAAAAAAAAAAAAAAAAA5            20         8.4

AAAAAAAAAAAAAAAAAAAA6 Pump4      0          0
AAAAAAAAAAAAAAAAAAAA6            0.1        9.05
AAAAAAAAAAAAAAAAAAAA6            20         9.05

AAAAAAAAAAAAAAAAAAAA7 Pump4      0          0
AAAAAAAAAAAAAAAAAAAA7            0.1        9.7
AAAAAAAAAAAAAAAAAAAA7            20         9.7

AAAAAAAAAAAAAAAAAAAA8 Pump4      0          0
AAAAAAAAAAAAAAAAAAAA8            0.1        11
AAAAAAAAAAAAAAAAAAAA8            20         11

AAAAAAAAAAAAAAAAAAAA9 Pump4      0          0
AAAAAAAAAAAAAAAAAAAA9            0.1        12.3
AAAAAAAAAAAAAAAAAAAA9            20         12.3

AAAAAAAAAAAAAAAAAAB6 Pump4      0          0
AAAAAAAAAAAAAAAAAAB6            0.1        0.65
AAAAAAAAAAAAAAAAAAB6            20         0.65

AAAAAAAAAAAAAAAD7 Pump4      0          0
AAAAAAAAAAAAAAAD7            0.1        9.39
AAAAAAAAAAAAAAAD7            20         9.39

AAAAAAAAAAAAAAAAAAAAAA0 Pump4      0          0
AAAAAAAAAAAAAAAAAAAAAA0            0.1        13.25
AAAAAAAAAAAAAAAAAAAAAA0            20         13.25

AAAAAAAAAAAAAAAAAAAA- Pump4      0          0
AAAAAAAAAAAAAAAAAAAA-            0.1        13.58
AAAAAAAAAAAAAAAAAAAA-            20         13.58

AAAAAAAAAAAAAAAAAAAA_ Pump4      0          0
AAAAAAAAAAAAAAAAAAAA_            0.1        16.16
AAAAAAAAAAAAAAAAAAAA_            20         16.16

AAAAAAAAAAAAAAAAAAAB0 Pump4      0          0
AAAAAAAAAAAAAAAAAAAB0            0.1        16.81
AAAAAAAAAAAAAAAAAAAB0            20         16.81

AAAAAAAAAAAAAAAAAAB7 Pump4      0          0
AAAAAAAAAAAAAAAAAAB7            0.1        1.29
AAAAAAAAAAAAAAAAAAB7            20         1.29

AAAAAAAAAAAAAAAD8 Pump4      0          0
AAAAAAAAAAAAAAAD8            0.1        4.45
AAAAAAAAAAAAAAAD8            20         4.45

AAAAAAAAAAAAAAAAAAAB1 Pump4      0          0
AAAAAAAAAAAAAAAAAAAB1            0.1        19.39
AAAAAAAAAAAAAAAAAAAB1            20         19.39

AAAAAAAAAAAAAAAAAAAB2 Pump4      0          0
AAAAAAAAAAAAAAAAAAAB2            0.1        22.62
AAAAAAAAAAAAAAAAAAAB2            20         22.62

AAAAAAAAAAAAAAAAAAB8 Pump4      0          0
AAAAAAAAAAAAAAAAAAB8            0.1        1.94
AAAAAAAAAAAAAAAAAAB8            20         1.94

AAAAAAAAAAAAAAAAAAAB3 Pump4      0          0
AAAAAAAAAAAAAAAAAAAB3            0.1        25.86
AAAAAAAAAAAAAAAAAAAB3            20         25.86

AAAAAAAAAAAAAAAAAAB9 Pump4      0          0
AAAAAAAAAAAAAAAAAAB9            0.1        2.59
AAAAAAAAAAAAAAAAAAB9            20         2.59

AAAAAAAAAAAAAAAAAAAB4 Pump4      0          0
AAAAAAAAAAAAAAAAAAAB4            0.1        35.55
AAAAAAAAAAAAAAAAAAAB4            20         35.55

AAAAAAAAAAAAAAAAAAB- Pump4      0          0
AAAAAAAAAAAAAAAAAAB-            0.1        3.23
AAAAAAAAAAAAAAAAAAB-            20         3.23

AAAAAAAAAAAAAAAAAAB_ Pump4      0          0
AAAAAAAAAAAAAAAAAAB_            0.1        3.88
AAAAAAAAAAAAAAAAAAB_            20         3.88

AAAAAAAAAAAAAAAAAAC0 Pump4      0          0
AAAAAAAAAAAAAAAAAAC0            0.1        4.53
AAAAAAAAAAAAAAAAAAC0            20         4.53

AAAAAAAAAAAAAAAAAAC1 Pump4      0          0
AAAAAAAAAAAAAAAAAAC1            0.1        5.17
AAAAAAAAAAAAAAAAAAC1            20         5.17

AAAAAAAAAAAAAAAAAAC2 Pump4      0          0
AAAAAAAAAAAAAAAAAAC2            0.1        5.82
AAAAAAAAAAAAAAAAAAC2            20         5.82

AAAAAAAAAAAAAAD7 Pump4      0          0
AAAAAAAAAAAAAAD7            0.1        9.39
AAAAAAAAAAAAAAD7            20         9.39

AAAAAAAAAAAAAAD8 Pump4      0          0
AAAAAAAAAAAAAAD8            0.1        3.23
AAAAAAAAAAAAAAD8            20         3.23

AAAE5            Pump4      0          1
AAAE5                       40         1

AAAAAAAAAAAAAAD9 Pump4      0          0
AAAAAAAAAAAAAAD9            4.08       0
AAAAAAAAAAAAAAD9            6.08       45
AAAAAAAAAAAAAAD9            60         45

AAAAAAAAAAAAAAD- Pump4      0          0
AAAAAAAAAAAAAAD-            6.08       0
AAAAAAAAAAAAAAD-            11.08      35
AAAAAAAAAAAAAAD-            60         35

AAAAAAAAAAAAAAD_ Pump4      0          0
AAAAAAAAAAAAAAD_            15.08      0
AAAAAAAAAAAAAAD_            17.08      60
AAAAAAAAAAAAAAD_            60         60

AAAAAAAAAAAAAAAAAAAAAAAAAA0 Rating     0.6        0.264
AAAAAAAAAAAAAAAAAAAAAAAAAA0            1.2        0.9
AAAAAAAAAAAAAAAAAAAAAAAAAA0            1.8        1.3
AAAAAAAAAAAAAAAAAAAAAAAAAA0            2.4        1.25
AAAAAAAAAAAAAAAAAAAAAAAAAA0            3          1.12
AAAAAAAAAAAAAAAAAAAAAAAAAA0            3.6        1.09
AAAAAAAAAAAAAAAAAAAAAAAAAA0            4.2        1.11
AAAAAAAAAAAAAAAAAAAAAAAAAA0            4.8        1.17
AAAAAAAAAAAAAAAAAAAAAAAAAA0            5.4        1.23
AAAAAAAAAAAAAAAAAAAAAAAAAA0            6          1.3
AAAAAAAAAAAAAAAAAAAAAAAAAA0            6.6        1.36
AAAAAAAAAAAAAAAAAAAAAAAAAA0            7.2        1.42
AAAAAAAAAAAAAAAAAAAAAAAAAA0            7.8        1.48
AAAAAAAAAAAAAAAAAAAAAAAAAA0            8.4        1.53
AAAAAAAAAAAAAAAAAAAAAAAAAA0            9          1.59
AAAAAAAAAAAAAAAAAAAAAAAAAA0            9.6        1.64
AAAAAAAAAAAAAAAAAAAAAAAAAA0            10.2       1.69
AAAAAAAAAAAAAAAAAAAAAAAAAA0            10.8       1.74
AAAAAAAAAAAAAAAAAAAAAAAAAA0            11.4       1.78
AAAAAAAAAAAAAAAAAAAAAAAAAA0            12         1.83

AAAAAAAAAAAAAAAAAAAAAAAAAA1 Rating     0.6        0.271
AAAAAAAAAAAAAAAAAAAAAAAAAA1            1.2        0.95
AAAAAAAAAAAAAAAAAAAAAAAAAA1            1.8        1.44
AAAAAAAAAAAAAAAAAAAAAAAAAA1            2.4        1.44
AAAAAAAAAAAAAAAAAAAAAAAAAA1            3          1.29
AAAAAAAAAAAAAAAAAAAAAAAAAA1            3.6        1.22
AAAAAAAAAAAAAAAAAAAAAAAAAA1            4.2        1.24
AAAAAAAAAAAAAAAAAAAAAAAAAA1            4.8        1.29
AAAAAAAAAAAAAAAAAAAAAAAAAA1            5.4        1.36
AAAAAAAAAAAAAAAAAAAAAAAAAA1            6          1.42
AAAAAAAAAAAAAAAAAAAAAAAAAA1            6.6        1.49
AAAAAAAAAAAAAAAAAAAAAAAAAA1            7.2        1.56
AAAAAAAAAAAAAAAAAAAAAAAAAA1            7.8        1.62
AAAAAAAAAAAAAAAAAAAAAAAAAA1            8.4        1.68
AAAAAAAAAAAAAAAAAAAAAAAAAA1            9          1.75
AAAAAAAAAAAAAAAAAAAAAAAAAA1            9.6        1.8
AAAAAAAAAAAAAAAAAAAAAAAAAA1            10.2       1.86
AAAAAAAAAAAAAAAAAAAAAAAAAA1            10.8       1.91
AAAAAAAAAAAAAAAAAAAAAAAAAA1            11.4       1.96
AAAAAAAAAAAAAAAAAAAAAAAAAA1            12         2.01

AAAAAAAAAAAAAAAAAAAAAAAAAA2 Rating     0.9        0.65
AAAAAAAAAAAAAAAAAAAAAAAAAA2            1.8        1.87
AAAAAAAAAAAAAAAAAAAAAAAAAA2            2.7        2.1
AAAAAAAAAAAAAAAAAAAAAAAAAA2            3.6        1.83
AAAAAAAAAAAAAAAAAAAAAAAAAA2            4.5        1.76
AAAAAAAAAAAAAAAAAAAAAAAAAA2            5.4        1.84
AAAAAAAAAAAAAAAAAAAAAAAAAA2            6.3        1.97
AAAAAAAAAAAAAAAAAAAAAAAAAA2            7.2        2.09
AAAAAAAAAAAAAAAAAAAAAAAAAA2            8.1        2.22
AAAAAAAAAAAAAAAAAAAAAAAAAA2            9          2.33
AAAAAAAAAAAAAAAAAAAAAAAAAA2            9.9        2.45
AAAAAAAAAAAAAAAAAAAAAAAAAA2            10.8       2.56
AAAAAAAAAAAAAAAAAAAAAAAAAA2            11.7       2.66
AAAAAAAAAAAAAAAAAAAAAAAAAA2            12.6       2.76
AAAAAAAAAAAAAAAAAAAAAAAAAA2            13.5       2.86
AAAAAAAAAAAAAAAAAAAAAAAAAA2            14.4       2.95
AAAAAAAAAAAAAAAAAAAAAAAAAA2            15.3       3.04
AAAAAAAAAAAAAAAAAAAAAAAAAA2            16.2       3.14
AAAAAAAAAAAAAAAAAAAAAAAAAA2            17.1       3.22
AAAAAAAAAAAAAAAAAAAAAAAAAA2            18         3.3

AAAAAAAAAAAAAAAAAAAAAAAAAA3 Rating     0.6        0.28
AAAAAAAAAAAAAAAAAAAAAAAAAA3            1.2        1.07
AAAAAAAAAAAAAAAAAAAAAAAAAA3            1.8        1.8
AAAAAAAAAAAAAAAAAAAAAAAAAA3            2.4        2.02
AAAAAAAAAAAAAAAAAAAAAAAAAA3            3          1.87
AAAAAAAAAAAAAAAAAAAAAAAAAA3            3.6        1.71
AAAAAAAAAAAAAAAAAAAAAAAAAA3            4.2        1.66
AAAAAAAAAAAAAAAAAAAAAAAAAA3            4.8        1.69
AAAAAAAAAAAAAAAAAAAAAAAAAA3            5.4        1.75
AAAAAAAAAAAAAAAAAAAAAAAAAA3            6          1.83
AAAAAAAAAAAAAAAAAAAAAAAAAA3            6.6        1.91
AAAAAAAAAAAAAAAAAAAAAAAAAA3            7.2        2
AAAAAAAAAAAAAAAAAAAAAAAAAA3            7.8        2.07
AAAAAAAAAAAAAAAAAAAAAAAAAA3            8.4        2.15
AAAAAAAAAAAAAAAAAAAAAAAAAA3            9          2.23
AAAAAAAAAAAAAAAAAAAAAAAAAA3            9.6        2.3
AAAAAAAAAAAAAAAAAAAAAAAAAA3            10.2       2.37
AAAAAAAAAAAAAAAAAAAAAAAAAA3            10.8       2.44
AAAAAAAAAAAAAAAAAAAAAAAAAA3            11.4       2.51
AAAAAAAAAAAAAAAAAAAAAAAAAA3            12         2.57

AAAAAAAAAAAAAAAAAAAAAAAAA8 Rating     0.6        0.27
AAAAAAAAAAAAAAAAAAAAAAAAA8            1.2        0.99
AAAAAAAAAAAAAAAAAAAAAAAAA8            1.8        1.56
AAAAAAAAAAAAAAAAAAAAAAAAA8            2.4        1.62
AAAAAAAAAAAAAAAAAAAAAAAAA8            3          1.46
AAAAAAAAAAAAAAAAAAAAAAAAA8            3.6        1.36
AAAAAAAAAAAAAAAAAAAAAAAAA8            4.2        1.36
AAAAAAAAAAAAAAAAAAAAAAAAA8            4.8        1.41
AAAAAAAAAAAAAAAAAAAAAAAAA8            5.4        1.48
AAAAAAAAAAAAAAAAAAAAAAAAA8            6          1.55
AAAAAAAAAAAAAAAAAAAAAAAAA8            6.6        1.62
AAAAAAAAAAAAAAAAAAAAAAAAA8            7.2        1.69
AAAAAAAAAAAAAAAAAAAAAAAAA8            7.8        1.76
AAAAAAAAAAAAAAAAAAAAAAAAA8            8.4        1.83
AAAAAAAAAAAAAAAAAAAAAAAAA8            9          1.89
AAAAAAAAAAAAAAAAAAAAAAAAA8            9.6        1.96
AAAAAAAAAAAAAAAAAAAAAAAAA8            10.2       2.02
AAAAAAAAAAAAAAAAAAAAAAAAA8            10.8       2.07
AAAAAAAAAAAAAAAAAAAAAAAAA8            11.4       2.13
AAAAAAAAAAAAAAAAAAAAAAAAA8            12         2.18

AAAAAAAAAAAAAAAAAAAAAAAAAA4 STORAGE    0          103.33
AAAAAAAAAAAAAAAAAAAAAAAAAA4            4.58       217.3
AAAAAAAAAAAAAAAAAAAAAAAAAA4            11.25      217.3

AAAAAAAAAAAAAAAAAAAAAA1 STORAGE    0          46.68
AAAAAAAAAAAAAAAAAAAAAA1            6.33       154
AAAAAAAAAAAAAAAAAAAAAA1            11.83      20
AAAAAAAAAAAAAAAAAAAAAA1            26.58      20


AAAAAAAAAAAE9    STORAGE    0          252000
AAAAAAAAAAAE9               29         252000

AAAAAAAAAAB_     STORAGE    0          12.566371
AAAAAAAAAAB_                1          65.481397
AAAAAAAAAAB_                2          81.848403
AAAAAAAAAAB_                3          90.026038
AAAAAAAAAAB_                4          92.566371
AAAAAAAAAAB_                5          90.026038
AAAAAAAAAAB_                6          81.848403
AAAAAAAAAAB_                7          65.481397
AAAAAAAAAAB_                8          12.566371
AAAAAAAAAAB_                30         12.566371


AAAAAAAAAAAE-    STORAGE    0          13
AAAAAAAAAAAE-               2          13
AAAAAAAAAAAE-               2.1        26573
AAAAAAAAAAAE-               4          108861
AAAAAAAAAAAE-               6          426086
AAAAAAAAAAAE-               8          901970
AAAAAAAAAAAE-               10         1134491
AAAAAAAAAAAE-               12         1354471
AAAAAAAAAAAE-               14         1615789
AAAAAAAAAAAE-               16         2045890

AA5              STORAGE    0          0
AA5                         0.005      248000
AA5                         18.75      248000
AA5                         18.755     1000
AA5                         28.75      1000

AAAAAAAAAAF3     STORAGE    0          179.167
AAAAAAAAAAF3                13.62      573.3
AAAAAAAAAAF3                13.625     895.833
AAAAAAAAAAF3                48.49      895.833
AAAAAAAAAAF3                48.491     0

[TIMESERIES]


AAAAAAAAAAF4     FILE "stage.dat"

AAAAAAAAAAF5     FILE "stage.dat"

AAAAAAAAAAF6     FILE "stage.dat"

AAAAAAAAAAF7     FILE "stage.dat"

AAAAAAAAAAF8     FILE "stage.dat"

AA0              FILE "rainfall.dat"

AA1              FILE "rainfall.dat"

AAAE6            FILE "rainfall.dat"

AAAE7            FILE "rainfall.dat"

AAAE8            FILE "rainfall.dat"

AAAE9            FILE "rainfall.dat"

[PATTERNS]


AAAAAAB8         HOURLY     1.020000 0.990000 0.950000 0.910000 0.860000 0.800000
AAAAAAB8                    0.780000 0.830000 0.910000 0.950000 0.950000 0.950000
AAAAAAB8                    0.950000 1.010000 1.140000 1.180000 1.140000 1.110000
AAAAAAB8                    1.100000 1.110000 1.110000 1.100000 1.090000 1.050000

AAAAAAAAAAF9     MONTHLY    1.004000 1.096000 1.164000 1.101000 0.968000 0.904000
AAAAAAAAAAF9                0.922000 0.805000 0.788000 0.856000 0.938000 1.000000

AAAAAAAAAAF-     WEEKEND    1.010000 1.000000 0.980000 0.970000 0.970000 1.000000
AAAAAAAAAAF-                0.980000 0.920000 0.860000 0.890000 0.970000 1.020000
AAAAAAAAAAF-                1.040000 0.970000 0.890000 0.920000 1.030000 1.100000
AAAAAAAAAAF-                1.100000 1.090000 1.070000 1.060000 1.050000 1.060000

AAAAAAB9         HOURLY     1.310000 1.190000 1.040000 0.880000 0.720000 0.600000
AAAAAAB9                    0.520000 0.480000 0.510000 0.700000 1.120000 1.380000
AAAAAAB9                    1.320000 1.220000 1.160000 1.140000 1.100000 1.030000
AAAAAAB9                    1.000000 1.000000 1.030000 1.090000 1.190000 1.250000

AAAAAAAAAAF_     MONTHLY    1.235000 1.288000 1.410000 1.167000 1.100000 1.036000
AAAAAAAAAAF_                0.979000 0.959000 0.931000 1.044000 1.242000 1.000000

AAAAAAAAAAG0     WEEKEND    0.860000 0.900000 0.960000 1.000000 1.020000 1.010000
AAAAAAAAAAG0                1.010000 1.000000 0.900000 0.670000 0.510000 0.590000
AAAAAAAAAAG0                0.880000 1.100000 1.190000 1.170000 1.180000 1.210000
AAAAAAAAAAG0                1.210000 1.220000 1.190000 1.140000 1.090000 1.040000

AAAAAAB-         HOURLY     1.060000 0.980000 0.910000 0.860000 0.810000 0.790000
AAAAAAB-                    0.790000 0.830000 0.920000 1.020000 1.080000 1.090000
AAAAAAB-                    1.070000 1.060000 1.060000 1.080000 1.080000 1.060000
AAAAAAB-                    1.060000 1.070000 1.090000 1.080000 1.080000 1.080000

AAAAAAAAAAG1     MONTHLY    1.812000 2.026000 2.751000 2.229000 2.098000 1.515000
AAAAAAAAAAG1                1.773000 1.735000 1.538000 1.796000 1.666000 1.000000

AAAAAAAAAAG2     WEEKEND    0.970000 0.980000 1.010000 1.030000 1.030000 1.040000
AAAAAAAAAAG2                1.000000 0.970000 0.890000 0.860000 0.890000 0.950000
AAAAAAAAAAG2                1.040000 1.060000 1.040000 1.020000 1.000000 1.030000
AAAAAAAAAAG2                1.050000 1.050000 1.040000 1.030000 1.000000 1.010000

AAAAAAB_         HOURLY     1.030000 1.020000 1.000000 0.970000 0.930000 0.910000
AAAAAAB_                    0.910000 0.950000 0.960000 0.970000 0.950000 0.980000
AAAAAAB_                    0.980000 0.970000 1.030000 1.030000 1.020000 1.040000
AAAAAAB_                    1.060000 1.090000 1.090000 1.050000 1.040000 1.010000

AAAAAAAAAAG3     MONTHLY    1.000000 1.000000 1.000000 1.000000 1.000000 1.000000
AAAAAAAAAAG3                1.000000 1.000000 1.000000 1.000000 1.000000 1.000000

AAAAAAAAAAG4     WEEKEND    0.990000 1.010000 1.010000 1.080000 1.010000 1.020000
AAAAAAAAAAG4                0.950000 0.900000 0.870000 0.910000 0.980000 0.980000
AAAAAAAAAAG4                0.990000 0.970000 0.960000 0.990000 1.030000 0.990000
AAAAAAAAAAG4                1.030000 1.020000 1.030000 1.100000 1.080000 1.080000

AAAAAAC0         HOURLY     0.930000 0.850000 0.770000 0.730000 0.690000 0.690000
AAAAAAC0                    0.750000 0.890000 1.090000 1.210000 1.230000 1.250000
AAAAAAC0                    1.240000 1.210000 1.180000 1.150000 1.090000 1.060000
AAAAAAC0                    1.020000 1.010000 0.990000 1.000000 1.000000 0.970000

AAAAAAAAAAG5     MONTHLY    1.611000 1.441000 1.500000 1.581000 1.798000 0.316000
AAAAAAAAAAG5                0.279000 1.157000 0.671000 1.106000 1.018000 1.000000

AAAAAAAAAAG6     WEEKEND    1.020000 1.060000 1.120000 1.140000 1.160000 1.130000
AAAAAAAAAAG6                1.030000 0.920000 0.840000 0.850000 0.900000 0.920000
AAAAAAAAAAG6                0.950000 0.970000 0.990000 0.990000 1.030000 1.030000
AAAAAAAAAAG6                1.040000 1.030000 1.040000 1.040000 1.030000 1.050000

AAAAAAC1         HOURLY     1.070000 0.970000 0.830000 0.730000 0.670000 0.650000
AAAAAAC1                    0.680000 0.810000 1.010000 1.100000 1.090000 1.080000
AAAAAAC1                    1.080000 1.080000 1.080000 1.090000 1.080000 1.060000
AAAAAAC1                    1.080000 1.110000 1.150000 1.180000 1.170000 1.130000

AAAAAAAAAAG7     MONTHLY    0.991000 1.137000 1.587000 1.230000 1.010000 1.001000
AAAAAAAAAAG7                1.071000 0.856000 0.800000 0.841000 1.007000 1.000000

AAAAAAAAAAG8     WEEKEND    0.990000 1.010000 1.020000 1.050000 1.040000 1.050000
AAAAAAAAAAG8                0.960000 0.880000 0.790000 0.850000 0.970000 1.050000
AAAAAAAAAAG8                1.080000 1.070000 1.070000 1.060000 1.060000 1.060000
AAAAAAAAAAG8                1.020000 1.010000 0.980000 0.970000 0.980000 0.990000

AAAAAAC2         HOURLY     0.940000 0.860000 0.780000 0.720000 0.700000 0.700000
AAAAAAC2                    0.820000 1.020000 1.140000 1.140000 1.130000 1.120000
AAAAAAC2                    1.120000 1.100000 1.070000 1.050000 1.050000 1.050000
AAAAAAC2                    1.070000 1.090000 1.100000 1.110000 1.090000 1.020000

AAAAAAAAAAG9     MONTHLY    0.692000 0.786000 1.302000 0.969000 0.720000 0.727000
AAAAAAAAAAG9                0.701000 0.640000 0.586000 0.610000 0.707000 1.000000

AAAAAAAAAAG-     WEEKEND    0.960000 1.010000 1.050000 1.060000 1.080000 1.080000
AAAAAAAAAAG-                0.940000 0.850000 0.870000 0.990000 1.050000 1.060000
AAAAAAAAAAG-                1.050000 1.080000 1.070000 1.070000 1.050000 1.020000
AAAAAAAAAAG-                0.990000 0.950000 0.960000 0.940000 0.940000 0.940000

AAAAAAC3         HOURLY     0.960000 0.930000 0.900000 0.870000 0.870000 0.860000
AAAAAAC3                    0.870000 0.930000 1.020000 1.100000 1.100000 1.100000
AAAAAAC3                    1.090000 1.070000 1.070000 1.060000 1.050000 1.030000
AAAAAAC3                    1.020000 1.030000 1.030000 1.030000 1.020000 1.000000

AAAAAAAAAAG_     MONTHLY    1.000000 1.000000 1.000000 1.000000 1.000000 1.000000
AAAAAAAAAAG_                1.000000 1.000000 1.000000 1.000000 1.000000 1.000000

AAAAAAAAAAH0     WEEKEND    1.000000 1.020000 1.020000 1.040000 1.030000 1.080000
AAAAAAAAAAH0                1.050000 1.030000 0.960000 0.930000 0.980000 1.020000
AAAAAAAAAAH0                1.020000 1.020000 1.010000 1.000000 0.980000 0.990000
AAAAAAAAAAH0                0.980000 0.970000 0.970000 0.970000 0.980000 0.970000

AAAAAAC4         HOURLY     0.890000 0.830000 0.760000 0.740000 0.730000 0.750000
AAAAAAC4                    0.830000 1.030000 1.180000 1.130000 1.090000 1.070000
AAAAAAC4                    1.070000 1.060000 1.080000 1.090000 1.070000 1.090000
AAAAAAC4                    1.130000 1.120000 1.120000 1.110000 1.050000 0.980000

AAAAAAAAAAH1     MONTHLY    2.203000 2.287000 3.005000 2.309000 1.610000 0.811000
AAAAAAAAAAH1                1.241000 1.394000 1.774000 1.632000 2.334000 1.000000

AAAAAAAAAAH2     WEEKEND    0.920000 0.950000 0.940000 0.930000 0.930000 0.960000
AAAAAAAAAAH2                0.810000 0.760000 0.760000 0.940000 1.100000 1.180000
AAAAAAAAAAH2                1.160000 1.110000 1.140000 1.140000 1.090000 1.080000
AAAAAAAAAAH2                1.030000 1.040000 1.020000 0.970000 0.950000 0.960000

AAAAAAC5         HOURLY     0.980000 0.850000 0.790000 0.740000 0.700000 0.710000
AAAAAAC5                    0.710000 0.910000 1.180000 1.320000 1.220000 1.120000
AAAAAAC5                    1.080000 1.040000 1.030000 1.000000 0.990000 1.020000
AAAAAAC5                    1.050000 1.080000 1.170000 1.110000 1.150000 1.060000

AAAAAAAAAAH3     MONTHLY    2.109000 1.066000 1.501000 1.060000 2.050000 0.899000
AAAAAAAAAAH3                0.869000 0.790000 0.705000 2.094000 0.987000 1.000000

AAAAAAAAAAH4     WEEKEND    0.950000 0.980000 0.920000 0.930000 0.960000 0.940000
AAAAAAAAAAH4                1.000000 0.860000 0.680000 0.750000 0.940000 1.080000
AAAAAAAAAAH4                1.110000 1.130000 1.090000 1.130000 1.130000 1.090000
AAAAAAAAAAH4                1.110000 1.080000 1.040000 1.060000 1.000000 1.030000

AAAAAAC6         HOURLY     0.830000 0.750000 0.710000 0.690000 0.680000 0.720000
AAAAAAC6                    0.790000 1.080000 1.270000 1.220000 1.180000 1.170000
AAAAAAC6                    1.160000 1.150000 1.140000 1.100000 1.080000 1.070000
AAAAAAC6                    1.070000 1.070000 1.080000 1.070000 1.010000 0.930000

AAAAAAAAAAH5     MONTHLY    1.017000 1.141000 1.570000 1.195000 1.027000 0.989000
AAAAAAAAAAH5                0.804000 0.842000 0.754000 0.846000 0.944000 1.000000

AAAAAAAAAAH6     WEEKEND    1.070000 1.090000 1.110000 1.110000 1.120000 1.080000
AAAAAAAAAAH6                1.010000 0.800000 0.780000 0.930000 1.010000 1.030000
AAAAAAAAAAH6                1.010000 0.970000 0.960000 0.970000 0.980000 0.990000
AAAAAAAAAAH6                1.030000 1.060000 1.040000 1.010000 1.050000 1.080000

AAAAAAC7         HOURLY     1.060000 1.010000 0.950000 0.870000 0.820000 0.790000
AAAAAAC7                    0.780000 0.810000 0.910000 1.030000 1.070000 1.070000
AAAAAAC7                    1.060000 1.040000 1.040000 1.070000 1.090000 1.080000
AAAAAAC7                    1.080000 1.080000 1.080000 1.080000 1.080000 1.060000

AAAAAAAAAAH7     MONTHLY    0.648000 0.816000 0.890000 0.740000 0.725000 0.708000
AAAAAAAAAAH7                0.632000 0.571000 0.508000 0.662000 0.658000 1.000000

AAAAAAAAAAH8     WEEKEND    0.990000 0.990000 1.000000 1.000000 0.990000 0.990000
AAAAAAAAAAH8                0.960000 0.940000 0.850000 0.820000 0.910000 1.000000
AAAAAAAAAAH8                1.020000 1.040000 1.040000 1.010000 1.010000 1.030000
AAAAAAAAAAH8                1.040000 1.050000 1.060000 1.070000 1.060000 1.070000

AAAAAC5          HOURLY     1.073000 1.059000 1.027000 0.974000 0.931000 0.890000
AAAAAC5                     0.857000 0.843000 0.840000 0.889000 0.951000 0.998000
AAAAAC5                     1.024000 1.056000 1.066000 1.076000 1.070000 1.071000
AAAAAC5                     1.077000 1.057000 1.049000 1.045000 1.043000 1.035000

AAAAAAAACO6      MONTHLY    1.000000 1.000000 1.000000 1.000000 1.000000 1.000000
AAAAAAAACO6                 1.000000 1.000000 1.000000 1.000000 1.000000 1.000000

AAAAAAAACO7      WEEKEND    1.027000 1.009000 1.024000 1.051000 1.054000 1.047000
AAAAAAAACO7                 1.024000 1.009000 0.988000 0.927000 0.883000 0.872000
AAAAAAAACO7                 0.929000 0.933000 0.978000 0.973000 0.990000 0.991000
AAAAAAAACO7                 1.017000 1.043000 1.058000 1.051000 1.052000 1.064000

AAAAAAAAAAAAAH9  HOURLY     1.030000 1.010000 0.980000 0.940000 0.900000 0.870000
AAAAAAAAAAAAAH9             0.850000 0.840000 0.870000 0.930000 1.000000 1.050000
AAAAAAAAAAAAAH9             1.080000 1.080000 1.070000 1.070000 1.070000 1.060000
AAAAAAAAAAAAAH9             1.050000 1.050000 1.050000 1.050000 1.050000 1.050000

AAAAAAAAAAAAAH-  HOURLY     1.008000 1.008000 1.012000 1.018000 1.027000 1.028000
AAAAAAAAAAAAAH-             1.036000 1.028000 1.001000 0.957000 0.922000 0.926000
AAAAAAAAAAAAAH-             0.959000 0.993000 1.009000 1.010000 1.006000 1.004000
AAAAAAAAAAAAAH-             1.007000 1.013000 1.012000 1.012000 1.014000 1.009000

AAAAAAAAF1       HOURLY     1.041 1.025 0.998 0.963 0.925 0.888
AAAAAAAAF1                  0.860 0.844 0.851 0.886 0.947 1.005
AAAAAAAAF1                  1.047 1.067 1.072 1.076 1.077 1.073
AAAAAAAAF1                  1.065 1.059 1.058 1.059 1.058 1.055

AAAAAAAAF2       HOURLY     1.001000 1.001000 1.005000 1.013000 1.023000 1.025000
AAAAAAAAF2                  1.033000 1.027000 1.001000 0.957000 0.919000 0.919000
AAAAAAAAF2                  0.951000 0.988000 1.006000 1.009000 1.010000 1.010000
AAAAAAAAF2                  1.014000 1.020000 1.020000 1.020000 1.021000 1.016000


AAAAAAC8         MONTHLY    1.048 1.044 1.173 1.062 1.066 0.918
AAAAAAC8                    0.930 0.933 0.895 1.003 0.974 0.955

[REPORT]

INPUT      NO
CONTROLS   YES
SUBCATCHMENTS ALL
NODES ALL
LINKS ALL

[TAGS]

[MAP]

[COORDINATES]



[VERTICES]



[POLYGONS]



[SYMBOLS]



[PROFILES]
