[TITLE]
Canonical EPA runoff interface USE test
[OPTIONS]
FLOW_UNITS           CFS
INFILTRATION         GREEN_AMPT
FLOW_ROUTING         DYNWAVE
LINK_OFFSETS         DEPTH
MIN_SLOPE            0
ALLOW_PONDING        YES
SKIP_STEADY_STATE    YES

START_DATE           01/07/1975
START_TIME           00:00:00
REPORT_START_DATE    01/07/1975
REPORT_START_TIME    00:00:00
END_DATE             01/08/1975
END_TIME             00:00:00
SWEEP_START          01/01
SWEEP_END            12/31
DRY_DAYS             0.000000
REPORT_STEP          01:00:00
WET_STEP             00:05:00
DRY_STEP             01:00:00
ROUTING_STEP         15
RULE_STEP            00:00:00

INERTIAL_DAMPING     NONE
NORMAL_FLOW_LIMITED  BOTH
FORCE_MAIN_EQUATION  H-W
VARIABLE_STEP        0.75
LENGTHENING_STEP     10
MIN_SURFAREA         25.000000
MAX_TRIALS           10
HEAD_TOLERANCE       0.005000
SYS_FLOW_TOL         5
LAT_FLOW_TOL         5
MINIMUM_STEP         0.5
THREADS              1

[FILES]
SAVE RUNOFF "runoff-interface.bin"

[EVAPORATION]
TEMPERATURE
DRY_ONLY         NO

[TEMPERATURE]
FILE         "temperature-use.dat"
WINDSPEED    MONTHLY    8.900000 11.400000 9.900000 9.800000 8.700000 8.000000 7.300000 7.000000 7.300000 7.800000 8.400000 8.700000
SNOWMELT               34.000000 0.500000 0.600000 20.000000 41.599998 -4.000000
ADC          IMPERVIOUS 1.0 1.0 1.0 1.0 1.0 1.0 1.0 1.0 1.0 1.0
ADC          PERVIOUS   1.0 1.0 1.0 1.0 1.0 1.0 1.0 1.0 1.0 1.0

[RAINGAGES]
G0001              VOLUME    0.250000 1.000000 FILE       "rainfall-use.dat" G0001        IN   

[SUBCATCHMENTS]
S0001     G0001              2633             7.73     81.17    674      0.5      0        SP0001           
S0002 G0001            N0060            18.07    54.44    1262     0.5      0        SP0001           
S0003             G0001              N0081            37       52.87    1269.535 0.5      0        SP0001           
S0004             G0001              N0233           74       54.61    1807.484 0.5      0        SP0001           
S0005        G0001              N0118            19       53.98    909.747  0.5      0        SP0001           
S0006        G0001              N0050             6.16     54.73    579.148  0.5      0        SP0001           
S0007       G0001              N0043            18.4     54.16    1000.94  0.5      0        SP0001           
S0008             G0001              N0026            4.32     54.3     466.69   0.5      0        SP0001           
S0009      G0001              N0246           2.88     54.3     396      0.5      0        SP0001           
S0010         G0001              N0020            5.12     52.41    511.234  0.5      0        SP0001           
S0011      G0001              2754             26.4     47.56    1198.95  0.5      0        SP0001           
S0012       G0001              6708             3.12     50.3     412.17   0.5      0        SP0001           
S0013     G0001              N0011            1.25     44.89    123      0.5      0        SP0001           
S0014    G0001              N0010            0.96     39.81    204.494  0.5      0        SP0001           
S0015             G0001              N0005            13.52    39.18    860.535  0.5      0        SP0001           
S0016    G0001              6694             2.54     35.4     298.098  0.5      0        SP0001           
S0017     G0001              N0018            3.6      54.3     776      0.5      0        SP0001           
S0018     G0001              N0014            13.8751  39.5     846      0.5      0        SP0001           
S0019      G0001              2750             2.33     63.65    318.582  0.5      0        SP0001           
S0020 G0001             N0034            3.25     93.01    1625     0.5      0        SP0001           
S0021       G0001              N0001            29       35.53    1000     0.5      0        SP0001           
S0022     G0001              N0036            5        91.28    4000     0.5      0        SP0001           
S0023        G0001              N0321           21       48.66    990      0.5      0        SP0001           
S0024         G0001              N0051            11.2     56.47    849      0.5      0        SP0001           
S0025 G0001           S0025 10.32 14.66    728.695  0.5      0        SP0001           
S0026     G0001              3926             25       62.91    1500     0.5      0        SP0001           
S0027        G0001              4136             79       58.84    15000    0.5      0        SP0001           
S0028  G0001              2170             55       55       1547.837 0.5      0        SP0001           
S0029   G0001              2170             1.056    58.84    150      0.5      0        SP0001           
S0030 G0001              N0399          2.46     58.84    350      0.5      0        SP0001           
S0031    G0001              4176             10.16    57.28    743.782  0.5      0        SP0001           
S0032    G0001              N0242           6.24     48.96    582.896  0.5      0        SP0001           
S0033       G0001              4533             35       56.1     16000    0.5      0        SP0001           
S0034        G0001              4546             4        69.12    5000     0.5      0        SP0001           
S0035     G0001              N0262          70       63.72    9000     0.5      0        SP0001           
S0036 G0001            N0261           130      57.72    15000    0.5      0        SP0001           
S0037    G0001              4698             10       70.76    8000     0.5      0        SP0001           
S0038 G0001           N0310           22       57.64    5000     0.5      0        SP0001           
S0039       G0001              N0538           29       57.63    6000     0.5      0        SP0001           
S0040      G0001              4144             20       57.83    10000    0.5      0        SP0001           
S0041      G0001              N0538           10.8     62.98    6000     0.5      0        SP0001           
S0042 G0001             N0536           27.15    43.55    1087.499 0.5      0        SP0001           
S0043      G0001              4581             1        58.58    1500     0.5      0        SP0001           
S0044 G0001             N0194           1.66     42.3     268.904  0.5      0        SP0001           
S0045      G0001              4727             8        72.25    590.322  0.5      0        SP0001           
S0046 G0001             N0263           11.58    54.53    710.229  0.5      0        SP0001           
S0047      G0001              N0265           10       61.62    660      0.5      0        SP0001           
S0048       G0001              4744             8        54.52    829.607  0.5      0        SP0001           
S0049         G0001              5437             3        44.76    590.322  0.5      0        SP0001           
S0050   G0001              N0391           5        44.76    466.69   0.5      0        SP0001           
S0051         G0001              N0480           30       47.21    2000     0.5      0        SP0001           
S0052   G0001              N0390       160      43.88    3000     0.5      0        SP0001           
S0053        G0001              N0389          47       47.21    2000     0.5      0        SP0001           
S0054   G0001              5695             58       48.14    300      0.5      0        SP0001           
S0055 G0001          N0155           136.5    40.03    6000     0.5      0        SP0001           
S0056      G0001              N0447           6        53.07    1000     0.5      0        SP0001           
S0057 G0001             N0449     10       54.39    2000     0.5      0        SP0001           
S0058     G0001              2701             18.01776 50.61    990      0.5      0        SP0001           
S0059        G0001              N0098            5.247938 65       532.109  0.5      0        SP0001           
S0060     G0001              N0112            7.779429 62.14    650.025  0.5      0        SP0001           
S0061    G0001              N0112            3.408688 73.68    385.334  0.5      0        SP0001           
S0062 G0001           N0117            7.95     63.85    588.474  0.5      0        SP0001           
S0063             G0001              N0366            13.742042 63.37   860.535  0.5      0        SP0001           
S0064            G0001              N0366            1.117519 79.77    220.633  0.5      0        SP0001           
S0065      G0001              N0117            2.61     54       337.182  0.5      0        SP0001           
S0066      G0001              N0225            19.170888 61.85   1020.335 0.5      0        SP0001           
S0067     G0001              N0225            1.066197 59.21    215.508  0.5      0        SP0001           
S0068 G0001            N0117            2.49     57.58    329.339  0.5      0        SP0001           
S0069      G0001              N0385            4.5      68.29    306.609  0.5      0        SP0001           
S0070     G0001              N0385            1.370098 60.2     244.298  0.5      0        SP0001           
S0071 G0001            N0117            3.2      57.09    373.352  0.5      0        SP0001           
S0072      G0001              2971             2.210202 67       310.284  0.5      0        SP0001           
S0073 G0001             2971             5.16     60.95    474.099  0.5      0        SP0001           
S0074      G0001              2971             5.2      54.31    532.109  0.5      0        SP0001           
S0075       G0001              N0543           6.5      62.8     208.71   0.5      0        SP0001           
S0076       G0001              N0556           6.5      62.02    208.71   0.5      0        SP0001           
S0077        G0001              N0055            1.4863   59.17    38.776   0.5      0        SP0001           
S0078  G0001              N0055            6.5137   59.17    169.934  0.5      0        SP0001           
S0079      G0001              N0361           6.9      53.87    147.58   0.5      0        SP0001           
S0080     G0001              3488             7.1      62.31    147.58   0.5      0        SP0001           
S0081     G0001              3583             33       54.41    2000     0.5      0        SP0001           
S0082       G0001              3992             117      53.93    9000     0.5      0        SP0001           
S0083        G0001              3573             3        21.75    224      0.5      0        SP0001           
S0084         G0001              3918             6        40.92    256      0.5      0        SP0001           
S0085       G0001              2971             10.24    61.96    1334     0.5      0        SP0001           
S0086     G0001              N0058            10       48.81    660      0.5      0        SP0001           
S0087 G0001            6725             67.62    48.81    1716.254 0.5      0        SP0001           
S0088      G0001              N0058            12       57.52    722.994  0.5      0        SP0001           
S0089 G0001             6725             20       41.06    933.381  0.5      0        SP0001           
S0090 G0001          N0399          2.937138 68.51    357.689  0.5      0        SP0001           
S0091  G0001              N0399          4.4      88.51    1120     0.5      0        SP0001           
S0092 G0001           4201             1.95     88.51    480      0.5      0        SP0001           
S0093  G0001              4191             5.8      55.36    240      0.5      0        SP0001           
S0094 G0001           4191             0.5      57.36    20       0.5      0        SP0001           
S0095 G0001         N0399          1        57.36    40       0.5      0        SP0001           
S0096  G0001              N0399          2.8      88.51    840      0.5      0        SP0001           
S0097 G0001           4198             1.2      88.51    360      0.5      0        SP0001           
S0098             G0001              4574             3        71.26    4000     0.5      0        SP0001           
S0099       G0001              N0530           7.26     55.83    562.357  0.5      0        SP0001           
S0100            G0001              4568             3.6      89.28    900      0.5      0        SP0001           
S0101      G0001              N0609            4.33     57.5     434.298  0.5      0        SP0001           
S0102           G0001              2662             3.12     54.31    660      0.5      0        SP0001           
S0103         G0001              5451             14.32    48.42    468      0.5      0        SP0001           
S0104      G0001              N0593           3.47     88.09    388.784  0.5      0        SP0001           
S0105        G0001              5695             39       34.91    1400     0.5      0        SP0001           
S0106    G0001              2399             0.372    25       166      0.5      0        SP0001           
S0107 G0001           2399             2.108    25       470      0.5      0        SP0001           
S0108          G0001              S0108          978.67   18.53    12845    0.5      0        SP0001           
S0109     G0001              5290             99.42    24.47    2081.042 0.5      0        SP0001           
S0110            G0001              N0089            50.2     40.5     12000    0.5      0        SP0001           
S0111           G0001              N0521             3.56     46.05    393.794  0.5      0        SP0001           
S0112        G0001              4939             0.56     89.37    156.185  0.5      0        SP0001           
S0113  G0001              N0094            1.31     54.3     238.88   0.5      0        SP0001           
S0114           G0001              2493             4.369181 54.3     436.259  0.5      0        SP0001           
S0115     G0001              N0387            3.4      54.3     660      0.5      0        SP0001           
S0116          G0001              N0002            2.72     41.96    344.214  0.5      0        SP0001           
S0117     G0001              N0180           11       86.69    692.214  0.5      0        SP0001           
S0118    G0001              N0188           7.92     80.71    414      0.5      0        SP0001           
S0119 G0001           N0094            2.298029 56.43    316.389  0.5      0        SP0001           
S0120    G0001              4808             8.09     86.57    423      0.5      0        SP0001           
S0121 G0001           N0094            18.87    55.02    906.63   0.5      0        SP0001           
S0122      G0001              4191             0.44     90.72    138.443  0.5      0        SP0001           
S0123 G0001             4195             1.03     62.83    211.818  0.5      0        SP0001           
S0124           G0001              N0129            0.3      86.93    113      0.5      0        SP0001           
S0125     G0001              N0128            1.51     64       256.468  0.5      0        SP0001           
S0126      G0001              2604             21       50.68    956.431  0.5      0        SP0001           
S0127        G0001              N0141            15       34.7     808.332  0.5      0        SP0001           
S0128        G0001              N0405            7        34.7     552.196  0.5      0        SP0001           
S0129        G0001              N0570          15       34.7     808.332  0.5      0        SP0001           
S0130        G0001              N0208            12       34.7     722.994  0.5      0        SP0001           
S0131         G0001              N0419             7        29.56    552.196  0.5      0        SP0001           
S0132          G0001              N0204            14       27.39    780.923  0.5      0        SP0001           
S0133         G0001              N0300           16.703343 67.48   5000.993 0.5      0        SP0001           
S0134   G0001              N0087            39       58.91    6000     0.5      0        SP0001           
S0135         G0001              4642             2.68     59.06    341.674  0.5      0        SP0001           
S0136   G0001              N0406           6.25     35.19    521.776  0.5      0        SP0001           
S0137          G0001              4727             4        55.98    417.421  0.5      0        SP0001           
S0138       G0001              N0437          50       35.14    200      0.5      0        SP0001           
S0139      G0001              3359             6.94     51.48    949.824  0.5      0        SP0001           
S0140      G0001              N0217             4.71     47.4     452.954  0.5      0        SP0001           
S0141      G0001              N0121            30       52.15    1620.7   0.5      0        SP0001           
S0142      G0001              N0431           31.64    35.14    1404.387 0.5      0        SP0001           
S0143      G0001              N0431           15       35.14    500      0.5      0        SP0001           
S0144 G0001             N0218            18.417625 35.14   500      0.5      0        SP0001           
S0145      G0001              N0443           10       25.14    500      0.5      0        SP0001           
S0146   G0001              N0217             95.24    8.4      9501     0.5      0        SP0001           
S0147     G0001              N0083            50       50.28    1475.805 0.5      0        SP0001           
S0148      G0001              6616             74.6902  52.22    2000     0.5      0        SP0001           
S0149      G0001              N0314           9.8      49.27    395      0.5      0        SP0001           
S0150 G0001              N0498            3.2      20.23    361.497  0.5      0        SP0001           
S0151         G0001              N0315           27.6     54.65    1225.896 0.5      0        SP0001           
S0152       G0001              6635             6.4      26.1     758      0.5      0        SP0001           
S0153     G0001              2882             11.52    53.8     780.923  0.5      0        SP0001           
S0154    G0001              N0097            2        61.4     330      0.5      0        SP0001           
S0155    G0001              N0104             1        60.24    208.71   0.5      0        SP0001           
S0156         G0001              N0234           70       54.63    1475.805 0.5      0        SP0001           
S0157    G0001              3865             62       47.26    2000     0.5      0        SP0001           
S0158      G0001              N0608            14.72    54.57    885.483  0.5      0        SP0001           
S0159       G0001              N0525           8        50       4000     0.5      0        SP0001           
S0160         G0001              S0160         25.66    9.64     1057.237 0.5      0        SP0001           
S0161         G0001              N0129            10       63.07    255.617  0.5      0        SP0001           
S0162      G0001              S0162      55.36    23.86    1552.895 0.5      0        SP0001           
S0163            G0001              N0268           6        84.66    2000     0.5      0        SP0001           
S0164      G0001              N0530           4.64     55.07    449.576  0.5      0        SP0001           
S0165         G0001              4723             10       55.62    660      0.5      0        SP0001           
S0166       G0001              N0006             5.52     11.43    548.237  0.5      0        SP0001           
S0167           G0001              2604             1.8      90.13    167      0.5      0        SP0001           
S0168     G0001              N0281           4.45     55.93    440.275  0.5      0        SP0001           
S0169            G0001              6898             20.32    70.7     8000     0.5      0        SP0001           
S0170             G0001              N0497            7.05     72.74    400      0.5      0        SP0001           
S0171       G0001              N0047            16.44    52.51    846.243  0.5      0        SP0001           
S0172           G0001              4939             9        67.84    1043.552 0.5      0        SP0001           
S0173         G0001              2604             55       54.01    1554.857 0.5      0        SP0001           
S0174        G0001              N0280         28.155714 58.02   1234.747 0.5      0        SP0001           
S0175  G0001              N0281           4.86     58.45    460.11   0.5      0        SP0001           
S0176            G0001              N0077            6.4      50.73    532.109  0.5      0        SP0001           
S0177      G0001              N0257           1        43.96    500      0.5      0        SP0001           
S0178 G0001             N0258           1.39     59.3     246.066  0.5      0        SP0001           
S0179           G0001              4032             17       35.32    2000     0.5      0        SP0001           
S0180           G0001              6635             1.998241 59.35    295.161  0.5      0        SP0001           
S0181           G0001              S0181           54       49.98    1533.701 0.5      0        SP0001           
S0182         G0001              4970             4.644984 52.13    711      0.5      0        SP0001           
S0183      G0001              3138             0.4      98.96    132      0.5      0        SP0001           
S0184      G0001              N0594           2.13     96.76    186      0.5      0        SP0001           
S0185 G0001             3472             4.98     45.16    465.756  0.5      0        SP0001           
S0186          G0001              N0299           58.904101 42.71   2276     0.5      0        SP0001           
S0187         G0001              N0151           1.05     80.89    213.864  0.5      0        SP0001           
S0188   G0001              5474             2.1      61.79    1000     0.5      0        SP0001           
S0189         G0001              N0191           0.83     52.41    190.144  0.5      0        SP0001           
S0190   G0001              5475             1.2      34.84    500      0.5      0        SP0001           
S0191         G0001              2913             5.410253 64       540.233  0.5      0        SP0001           
S0192           G0001              4970             4        81.01    417.421  0.5      0        SP0001           
S0193          G0001              5152             9.99     66.48    885.237  0.5      0        SP0001           
S0194    G0001              5123             40       50.72    295.161  0.5      0        SP0001           
S0195         G0001              4049             16.66    35.88    851.886  0.5      0        SP0001           
S0196         G0001              N0455           25       54.07    12000    0.5      0        SP0001           
S0197    G0001              S0197    26.21    18.71    1068.507 0.5      0        SP0001           
S0198           G0001              5068             7.84     60.39    518      0.5      0        SP0001           
S0199     G0001              5070             35       55.97    295.161  0.5      0        SP0001           
S0200          G0001              3252             2        71.37    281.566  0.5      0        SP0001           
S0201      G0001              5104             7        62.21    1043.552 0.5      0        SP0001           
S0202         G0001              5427             0.91     58.9     199.097  0.5      0        SP0001           
S0203   G0001              5426             2        42.86    208.71   0.5      0        SP0001           
S0204              G0001              4160             2.883966 50.8     396      0.5      0        SP0001           
S0205              G0001              3138             1        79.98    150      0.5      0        SP0001           
S0206        G0001              N0146           5.50432  51.73    511.234  0.5      0        SP0001           
S0207        G0001              3557             2        55.73    295.161  0.5      0        SP0001           
S0208        G0001              N0149           1        67.43    208.71   0.5      0        SP0001           
S0209        G0001              S0209        2        67.43    295.161  0.5      0        SP0001           
S0210        G0001              2170             0.674428 50       171.4    0.5      0        SP0001           
S0211            G0001              5438             1        30.83    373.352  0.5      0        SP0001           
S0212       G0001              N0126           1.55     83.74    264      0.5      0        SP0001           
S0213 G0001              N0125           4.07     64       723      0.5      0        SP0001           
S0214          G0001              N0518             73.38    46.71    1787.857 0.5      0        SP0001           
S0215             G0001              4782             10       78.68    2000     0.5      0        SP0001           
S0216         G0001              N0517             28.81    67.39    1120.252 0.5      0        SP0001           
S0217   G0001              N0271          64       67.39    18000    0.5      0        SP0001           
S0218            G0001              N0084            7.47     79.08    651      0.5      0        SP0001           
S0219        G0001              3138             0.7      81.25    382      0.5      0        SP0001           
S0220  G0001              N0372            12.29    64.3     722.692  0.5      0        SP0001           
S0221            G0001              N0299           0.75     43.44    180.748  0.5      0        SP0001           
S0222      G0001              N0387            1.75     54.07    276.098  0.5      0        SP0001           
S0223        G0001              N0384              0.5      54.7     153      0.5      0        SP0001           
S0224        G0001              3928             3        54.22    230      0.5      0        SP0001           
S0225          G0001              5695             24       39.16    300      0.5      0        SP0001           
S0226    G0001              N0155           60       39.16    6000     0.5      0        SP0001           
S0227          G0001              5450             0.47     72.46    143.085  0.5      0        SP0001           
S0228    G0001              N0251           1.1      48.54    550      0.5      0        SP0001           
S0229           G0001              2340             1        77.29    208.71   0.5      0        SP0001           
S0230     G0001              2315             31.32    60.54    1168.032 0.5      0        SP0001           
S0231          G0001              N0236           10.57    70.39    1289     0.5      0        SP0001           
S0232    G0001              N0128            24.8     52.93    1039.369 0.5      0        SP0001           
S0233     G0001              2719             12.905458 54.3    769.686  0.5      0        SP0001           
S0234         G0001              N0271          62       10       10       0.5      0        SP0001           
S0235           G0001              4693             120      42.55    2500     0.5      0        SP0001           
S0236         G0001              N0603            6        43.12    808.332  0.5      0        SP0001           
S0237         G0001              4782             13.17061 46.29    5000     0.5      0        SP0001           
S0238            G0001              3176             10       75.26    200      0.5      0        SP0001           
S0239      G0001              3130             21.06    56.14    957.796  0.5      0        SP0001           
S0240           G0001              3138             0.3      64.69    150      0.5      0        SP0001           
S0241      G0001              N0418            30       29.56    1143.154 0.5      0        SP0001           
S0242      G0001              N0582             25       29.56    1043.552 0.5      0        SP0001           
S0243      G0001              N0409             10       29.5     660      0.5      0        SP0001           
S0244      G0001              N0429         0.2      29.5     93.338   0.5      0        SP0001           
S0245        G0001              N0472         14       15.81    6000     0.5      0        SP0001           
S0246       G0001              N0551           7.1      10       3550     0.5      0        SP0001           
S0247             G0001              N0455           37       72.32    14000    0.5      0        SP0001           
S0248             G0001              N0257           1        88.58    500      0.5      0        SP0001           
S0249       G0001              N0258           1.21     59.3     229.581  0.5      0        SP0001           
S0250           G0001              N0468           5.03     51.05    396      0.5      0        SP0001           
S0251     G0001              N0465           12       51.05    389.903  0.5      0        SP0001           
S0252            G0001              4970             3        82.67    361.497  0.5      0        SP0001           
S0253           G0001              N0425             20       29.56    933.381  0.5      0        SP0001           
S0254      G0001              N0281           16.15    30.92    860.535  0.5      0        SP0001           
S0255         G0001              N0003            1.52     38.51    257.315  0.5      0        SP0001           
S0256         G0001              4049             19.6     36.66    924      0.5      0        SP0001           
S0257         G0001              N0355           12.11    48.72    726.3    0.5      0        SP0001           
S0258        G0001              3918             0.6      77.76    161.666  0.5      0        SP0001           
S0259        G0001              4632             6.14     78.33    3070     0.5      0        SP0001           
S0260        G0001              N0485           2        56.54    493.899  0.5      0        SP0001           
S0261       G0001              S0261       11.5     50.85    707.771  0.5      0        SP0001           
S0262       G0001              N0526             5.229939 30       532.109  0.5      0        SP0001           
S0263           G0001              5695             12       38.94    300      0.5      0        SP0001           
S0264            G0001              5126             3.4      40.74    834.841  0.5      0        SP0001           
S0265        G0001              4723             30       78.4     1289     0.5      0        SP0001           
S0266  G0001              N0263           19.227   56.3     915.166  0.5      0        SP0001           
S0267       G0001              4845             3.33     76.48    289      0.5      0        SP0001           
S0268            G0001              S0268            7.42     46.24    568.52   0.5      0        SP0001           
S0269             G0001              4175             1.5      50.8     255.617  0.5      0        SP0001           
S0270           G0001              2170             0.942682 56.4     225.755  0.5      0        SP0001           
S0271           G0001              N0266           8.951744 51.89    692.214  0.5      0        SP0001           
S0272        G0001              4201             8.1      91.76    2200     0.5      0        SP0001           
S0273    G0001              N0230            90       27.16    12000    0.5      0        SP0001           
S0274     G0001              N0453           12.82    55.86    682      0.5      0        SP0001           
S0275 G0001            N0452           18.25    44.52    891.611  0.5      0        SP0001           
S0276      G0001              N0033            6.1      38.63    781      0.5      0        SP0001           
S0277      G0001              N0514            1.3      80.37    295.161  0.5      0        SP0001           
S0278 G0001             N0245           3.92     53.57    494      0.5      0        SP0001           
S0279         G0001              N0289           15.31    64.87    942      0.5      0        SP0001           
S0280       G0001              N0339            6.7      28.97    777      0.5      0        SP0001           
S0281    G0001              4744             50       79.57    800      0.5      0        SP0001           
S0282     G0001              N0116            8        85.76    300      0.5      0        SP0001           
S0283    G0001              N0104             8        85.67    722.994  0.5      0        SP0001           
S0284 G0001           N0071            33.178356 58.21   2397     0.5      0        SP0001           
S0285    G0001              3138             1.4      86.32    200      0.5      0        SP0001           
S0286    G0001              N0104             15       49.99    500      0.5      0        SP0001           
S0287 G0001           S0287 11.96 55.92    721.788  0.5      0        SP0001           
S0288          G0001              N0544            2.3      88.48    162      0.5      0        SP0001           
S0289    G0001              N0539           4.36     66.08    435.8    0.5      0        SP0001           
S0290        G0001              2604             2        87.35    180      0.5      0        SP0001           
S0291           G0001              N0379            4.465003 70.49    489.469  0.5      0        SP0001           
S0292          G0001              3138             1.4      98       354      0.5      0        SP0001           
S0293    G0001              N0380            8.76     57.7     596.196  0.5      0        SP0001           
S0294             G0001              4939             14       55.36    1038     0.5      0        SP0001           
S0295          G0001              4782             17.15    51.02    2100     0.5      0        SP0001           
S0296            G0001              N0511           5.472454 46.77    544.25   0.5      0        SP0001           
S0297       G0001              3138             0.7      81.4     150      0.5      0        SP0001           
S0298 G0001              N0541           4.46     57.31    425.687  0.5      0        SP0001           
S0299      G0001              3138             1.4      97.52    150      0.5      0        SP0001           
S0300            G0001              S0300            1510.021224 8.67  9068.698 0.5      0        SP0001           
S0301        G0001              3228             11.74    52.36    468      0.5      0        SP0001           
S0302  G0001              N0464           10.12    52.36    663.948  0.5      0        SP0001           
S0303           G0001              N0182           5        66.37    466.69   0.5      0        SP0001           
S0304            G0001              N0092             14.091706 42.26   7045     0.5      0        SP0001           
S0305      G0001              5122             4.65     56.74    577.264  0.5      0        SP0001           
S0306 G0001             5123             12       55.31    208.71   0.5      0        SP0001           
S0307     G0001              5122             2.5      67.94    395.45   0.5      0        SP0001           
S0308          G0001              4744             2.37     81.3     1000     0.5      0        SP0001           
S0309    G0001              N0309           5.53     57.6     2765     0.5      0        SP0001           
S0310   G0001              N0062            89       59.45    15000    0.5      0        SP0001           
S0311  G0001              N0063            115.173945 40.63  8352.046 0.5      0        SP0001           
S0312 G0001              3443             14.53    49.73    795.567  0.5      0        SP0001           
S0313            G0001              N0182           2.37     77.45    321.305  0.5      0        SP0001           
S0314            G0001              6898             5.5      73.68    2000     0.5      0        SP0001           
S0315      G0001              2936             13       80.05    2000     0.5      0        SP0001           
S0316           G0001              4642             30       49.56    1143.154 0.5      0        SP0001           
S0317       G0001              N0594           10       78.95    660      0.5      0        SP0001           
S0318          G0001              N0583              6.6      46.71    500      0.5      0        SP0001           
S0319          G0001              N0585              18.6     46.71    500      0.5      0        SP0001           
S0320      G0001              N0231           1.03     88.6     211.818  0.5      0        SP0001           
S0321 G0001             N0202           2.397019 59.3     323.132  0.5      0        SP0001           
S0322      G0001              2867             2.3      56.72    282      0.5      0        SP0001           
S0323 G0001             N0174            5.4      59.3     3600     0.5      0        SP0001           
S0324      G0001              2493             17.28    66.88    1139     0.5      0        SP0001           
S0325 G0001             N0461           40       57.21    1325.434 0.5      0        SP0001           
S0326         G0001              N0129            2.38     84.58    93.338   0.5      0        SP0001           
S0327   G0001              2304             5.62     56.93    494.78   0.5      0        SP0001           
S0328             G0001              4970             8        63.22    742.61   0.5      0        SP0001           
S0329       G0001              5079             30       51.04    208.71   0.5      0        SP0001           

[SUBAREAS]
S0001     0.05       0.2        0.05       0.1        25         PERVIOUS   60        
S0002 0.05     0.2        0.05       0.1        25         PERVIOUS   80        
S0003             0.05       0.2        0.05       0.1        25         PERVIOUS   50        
S0004             0.05       0.2        0.05       0.1        25         PERVIOUS   50        
S0005        0.05       0.2        0.05       0.1        25         PERVIOUS   50        
S0006        0.05       0.2        0.05       0.1        25         PERVIOUS   80        
S0007       0.05       0.2        0.05       0.1        25         PERVIOUS   80        
S0008             0.05       0.2        0.05       0.1        25         PERVIOUS   80        
S0009      0.05       0.2        0.05       0.1        25         PERVIOUS   80        
S0010         0.05       0.2        0.05       0.1        25         PERVIOUS   80        
S0011      0.05       0.2        0.05       0.1        25         PERVIOUS   80        
S0012       0.05       0.2        0.05       0.1        25         PERVIOUS   80        
S0013     0.05       0.2        0.05       0.1        25         PERVIOUS   80        
S0014    0.05       0.2        0.05       0.1        25         PERVIOUS   80        
S0015             0.05       0.2        0.05       0.1        25         PERVIOUS   80        
S0016    0.05       0.2        0.05       0.1        25         PERVIOUS   80        
S0017     0.05       0.2        0.05       0.1        25         PERVIOUS   80        
S0018     0.05       0.2        0.05       0.1        25         PERVIOUS   80        
S0019      0.05       0.2        0.05       0.1        25         PERVIOUS   50        
S0020 0.05      0.2        0.05       0.1        25         PERVIOUS   50        
S0021       0.05       0.2        0.05       0.1        25         PERVIOUS   80        
S0022     0.05       0.2        0.05       0.1        25         PERVIOUS   50        
S0023        0.05       0.2        0.05       0.1        25         PERVIOUS   80        
S0024         0.05       0.2        0.05       0.1        25         PERVIOUS   80        
S0025 0.05    0.2        0.05       0.1        25         PERVIOUS   80        
S0026     0.05       0.2        0.05       0.1        25         PERVIOUS   60        
S0027        0.05       0.2        0.05       0.1        25         PERVIOUS   40        
S0028  0.05       0.2        0.05       0.1        25         PERVIOUS   80        
S0029   0.05       0.2        0.05       0.1        25         PERVIOUS   80        
S0030 0.05       0.2        0.05       0.1        25         PERVIOUS   80        
S0031    0.05       0.2        0.05       0.1        25         PERVIOUS   80        
S0032    0.05       0.2        0.05       0.1        25         PERVIOUS   80        
S0033       0.05       0.2        0.05       0.1        25         PERVIOUS   50        
S0034        0.05       0.2        0.05       0.1        25         PERVIOUS   50        
S0035     0.05       0.2        0.05       0.1        25         PERVIOUS   50        
S0036 0.05     0.2        0.05       0.1        25         PERVIOUS   40        
S0037    0.05       0.2        0.05       0.1        25         PERVIOUS   50        
S0038 0.05    0.2        0.05       0.1        25         PERVIOUS   40        
S0039       0.05       0.2        0.05       0.1        25         PERVIOUS   50        
S0040      0.05       0.2        0.05       0.1        25         PERVIOUS   40        
S0041      0.05       0.2        0.05       0.1        25         PERVIOUS   50        
S0042 0.05      0.2        0.05       0.1        25         PERVIOUS   80        
S0043      0.05       0.2        0.05       0.1        25         PERVIOUS   80        
S0044 0.05      0.2        0.05       0.1        25         PERVIOUS   80        
S0045      0.05       0.2        0.05       0.1        25         PERVIOUS   80        
S0046 0.05      0.2        0.05       0.1        25         PERVIOUS   80        
S0047      0.05       0.2        0.05       0.1        25         PERVIOUS   80        
S0048       0.05       0.2        0.05       0.1        25         PERVIOUS   80        
S0049         0.05       0.2        0.05       0.1        25         PERVIOUS   50        
S0050   0.05       0.2        0.05       0.1        25         PERVIOUS   50        
S0051         0.05       0.2        0.05       0.1        25         PERVIOUS   50        
S0052   0.05       0.2        0.05       0.1        25         PERVIOUS   80        
S0053        0.05       0.2        0.05       0.1        25         PERVIOUS   50        
S0054   0.05       0.2        0.05       0.1        25         PERVIOUS   80        
S0055 0.05   0.2        0.05       0.1        25         PERVIOUS   60        
S0056      0.05       0.2        0.05       0.1        25         PERVIOUS   80        
S0057 0.05      0.2        0.05       0.1        25         PERVIOUS   80        
S0058     0.05       0.2        0.05       0.1        25         PERVIOUS   80        
S0059        0.05       0.2        0.05       0.1        25         PERVIOUS   80        
S0060     0.05       0.2        0.05       0.1        25         PERVIOUS   80        
S0061    0.05       0.2        0.05       0.1        25         PERVIOUS   80        
S0062 0.05    0.2        0.05       0.1        25         PERVIOUS   80        
S0063             0.05       0.2        0.05       0.1        25         PERVIOUS   80        
S0064            0.05       0.2        0.05       0.1        25         PERVIOUS   80        
S0065      0.05       0.2        0.05       0.1        25         PERVIOUS   80        
S0066      0.05       0.2        0.05       0.1        25         PERVIOUS   80        
S0067     0.05       0.2        0.05       0.1        25         PERVIOUS   80        
S0068 0.05     0.2        0.05       0.1        25         PERVIOUS   80        
S0069      0.05       0.2        0.05       0.1        25         PERVIOUS   80        
S0070     0.05       0.2        0.05       0.1        25         PERVIOUS   80        
S0071 0.05     0.2        0.05       0.1        25         PERVIOUS   80        
S0072      0.05       0.2        0.05       0.1        25         PERVIOUS   80        
S0073 0.05      0.2        0.05       0.1        25         PERVIOUS   80        
S0074      0.05       0.2        0.05       0.1        25         PERVIOUS   80        
S0075       0.05       0.2        0.05       0.1        25         PERVIOUS   60        
S0076       0.05       0.2        0.05       0.1        25         PERVIOUS   60        
S0077        0.05       0.2        0.05       0.1        25         PERVIOUS   80        
S0078  0.05       0.2        0.05       0.1        25         PERVIOUS   80        
S0079      0.05       0.2        0.05       0.1        25         PERVIOUS   80        
S0080     0.05       0.2        0.05       0.1        25         PERVIOUS   80        
S0081     0.05       0.2        0.05       0.1        25         PERVIOUS   80        
S0082       0.05       0.2        0.05       0.1        25         PERVIOUS   80        
S0083        0.05       0.2        0.05       0.1        25         PERVIOUS   80        
S0084         0.05       0.2        0.05       0.1        25         PERVIOUS   80        
S0085       0.05       0.2        0.05       0.1        25         PERVIOUS   80        
S0086     0.05       0.2        0.05       0.1        25         PERVIOUS   80        
S0087 0.05     0.2        0.05       0.1        25         PERVIOUS   80        
S0088      0.05       0.2        0.05       0.1        25         PERVIOUS   80        
S0089 0.05      0.2        0.05       0.1        25         PERVIOUS   80        
S0090 0.05   0.2        0.05       0.1        25         PERVIOUS   80        
S0091  0.05       0.2        0.05       0.1        25         PERVIOUS   30        
S0092 0.05    0.2        0.05       0.1        25         PERVIOUS   30        
S0093  0.05       0.2        0.05       0.1        25         PERVIOUS   80        
S0094 0.05    0.2        0.05       0.1        25         PERVIOUS   80        
S0095 0.05  0.2        0.05       0.1        25         PERVIOUS   80        
S0096  0.05       0.2        0.05       0.1        25         PERVIOUS   30        
S0097 0.05    0.2        0.05       0.1        25         PERVIOUS   30        
S0098             0.05       0.2        0.05       0.1        25         PERVIOUS   50        
S0099       0.05       0.2        0.05       0.1        25         PERVIOUS   80        
S0100            0.05       0.2        0.05       0.1        25         PERVIOUS   50        
S0101      0.05       0.2        0.05       0.1        25         PERVIOUS   80        
S0102           0.05       0.2        0.05       0.1        25         PERVIOUS   80        
S0103         0.05       0.2        0.05       0.1        25         PERVIOUS   80        
S0104      0.05       0.2        0.05       0.1        25         PERVIOUS   80        
S0105        0.05       0.2        0.05       0.1        25         PERVIOUS   80        
S0106    0.05       0.2        0.05       0.1        25         PERVIOUS   80        
S0107 0.05    0.2        0.05       0.1        25         PERVIOUS   80        
S0108          0.05       0.2        0.05       0.1        25         PERVIOUS   80        
S0109     0.05       0.2        0.05       0.1        25         PERVIOUS   80        
S0110            0.05       0.2        0.05       0.1        25         PERVIOUS   60        
S0111           0.05       0.2        0.05       0.1        25         PERVIOUS   80        
S0112        0.05       0.2        0.05       0.1        25         PERVIOUS   80        
S0113  0.05       0.2        0.05       0.1        25         PERVIOUS   80        
S0114           0.05       0.2        0.05       0.1        25         PERVIOUS   80        
S0115     0.05       0.2        0.05       0.1        25         PERVIOUS   50        
S0116          0.05       0.2        0.05       0.1        25         PERVIOUS   80        
S0117     0.05       0.2        0.05       0.1        25         PERVIOUS   80        
S0118    0.05       0.2        0.05       0.1        25         PERVIOUS   80        
S0119 0.05    0.2        0.05       0.1        25         PERVIOUS   80        
S0120    0.05       0.2        0.05       0.1        25         PERVIOUS   80        
S0121 0.05    0.2        0.05       0.1        25         PERVIOUS   80        
S0122      0.05       0.2        0.05       0.1        25         PERVIOUS   80        
S0123 0.05      0.2        0.05       0.1        25         PERVIOUS   80        
S0124           0.05       0.2        0.05       0.1        25         PERVIOUS   80        
S0125     0.05       0.2        0.05       0.1        25         PERVIOUS   80        
S0126      0.05       0.2        0.05       0.1        25         PERVIOUS   50        
S0127        0.05       0.2        0.05       0.1        25         PERVIOUS   80        
S0128        0.05       0.2        0.05       0.1        25         PERVIOUS   80        
S0129        0.05       0.2        0.05       0.1        25         PERVIOUS   80        
S0130        0.05       0.2        0.05       0.1        25         PERVIOUS   80        
S0131         0.05       0.2        0.05       0.1        25         PERVIOUS   80        
S0132          0.05       0.2        0.05       0.1        25         PERVIOUS   80        
S0133         0.05       0.2        0.05       0.1        25         PERVIOUS   60        
S0134   0.05       0.2        0.05       0.1        25         PERVIOUS   50        
S0135         0.05       0.2        0.05       0.1        25         PERVIOUS   80        
S0136   0.05       0.2        0.05       0.1        25         PERVIOUS   80        
S0137          0.05       0.2        0.05       0.1        25         PERVIOUS   80        
S0138       0.05       0.2        0.05       0.1        25         PERVIOUS   80        
S0139      0.05       0.2        0.05       0.1        25         PERVIOUS   80        
S0140      0.05       0.2        0.05       0.1        25         PERVIOUS   80        
S0141      0.05       0.2        0.05       0.1        25         PERVIOUS   60        
S0142      0.05       0.2        0.05       0.1        25         PERVIOUS   60        
S0143      0.05       0.2        0.05       0.1        25         PERVIOUS   60        
S0144 0.05      0.2        0.05       0.1        25         PERVIOUS   80        
S0145      0.05       0.2        0.05       0.1        25         PERVIOUS   80        
S0146   0.05       0.2        0.05       0.1        25         PERVIOUS   60        
S0147     0.05       0.2        0.05       0.1        25         PERVIOUS   50        
S0148      0.05       0.2        0.05       0.1        25         PERVIOUS   50        
S0149      0.05       0.2        0.05       0.1        25         PERVIOUS   80        
S0150 0.05       0.2        0.05       0.1        25         PERVIOUS   80        
S0151         0.05       0.2        0.05       0.1        25         PERVIOUS   80        
S0152       0.05       0.2        0.05       0.1        25         PERVIOUS   80        
S0153     0.05       0.2        0.05       0.1        25         PERVIOUS   80        
S0154    0.05       0.2        0.05       0.1        25         PERVIOUS   80        
S0155    0.05       0.2        0.05       0.1        25         PERVIOUS   80        
S0156         0.05       0.2        0.05       0.1        25         PERVIOUS   60        
S0157    0.05       0.2        0.05       0.1        25         PERVIOUS   50        
S0158      0.05       0.2        0.05       0.1        25         PERVIOUS   80        
S0159       0.05       0.2        0.05       0.1        25         PERVIOUS   40        
S0160         0.05       0.2        0.05       0.1        25         PERVIOUS   80        
S0161         0.05       0.2        0.05       0.1        25         PERVIOUS   80        
S0162      0.05       0.2        0.05       0.1        25         PERVIOUS   80        
S0163            0.05       0.2        0.05       0.1        25         PERVIOUS   50        
S0164      0.05       0.2        0.05       0.1        25         PERVIOUS   80        
S0165         0.05       0.2        0.05       0.1        25         PERVIOUS   80        
S0166       0.05       0.2        0.05       0.1        25         PERVIOUS   80        
S0167           0.05       0.2        0.05       0.1        25         PERVIOUS   50        
S0168     0.05       0.2        0.05       0.1        25         PERVIOUS   80        
S0169            0.05       0.2        0.05       0.1        25         PERVIOUS   50        
S0170             0.05       0.2        0.05       0.1        25         PERVIOUS   80        
S0171       0.05       0.2        0.05       0.1        25         PERVIOUS   80        
S0172           0.05       0.2        0.05       0.1        25         PERVIOUS   80        
S0173         0.05       0.2        0.05       0.1        25         PERVIOUS   50        
S0174        0.05       0.2        0.05       0.1        25         PERVIOUS   80        
S0175  0.05       0.2        0.05       0.1        25         PERVIOUS   80        
S0176            0.05       0.2        0.05       0.1        25         PERVIOUS   80        
S0177      0.05       0.2        0.05       0.1        25         PERVIOUS   50        
S0178 0.05      0.2        0.05       0.1        25         PERVIOUS   50        
S0179           0.05       0.2        0.05       0.1        25         PERVIOUS   50        
S0180           0.05       0.2        0.05       0.1        25         PERVIOUS   80        
S0181           0.05       0.2        0.05       0.1        25         PERVIOUS   80        
S0182         0.05       0.2        0.05       0.1        25         PERVIOUS   80        
S0183      0.05       0.2        0.05       0.1        25         PERVIOUS   80        
S0184      0.05       0.2        0.05       0.1        25         PERVIOUS   80        
S0185 0.05      0.2        0.05       0.1        25         PERVIOUS   80        
S0186          0.05       0.2        0.05       0.1        25         PERVIOUS   60        
S0187         0.05       0.2        0.05       0.1        25         PERVIOUS   80        
S0188   0.05       0.2        0.05       0.1        25         PERVIOUS   80        
S0189         0.05       0.2        0.05       0.1        25         PERVIOUS   80        
S0190   0.05       0.2        0.05       0.1        25         PERVIOUS   80        
S0191         0.05       0.2        0.05       0.1        25         PERVIOUS   80        
S0192           0.05       0.2        0.05       0.1        25         PERVIOUS   80        
S0193          0.05       0.2        0.05       0.1        25         PERVIOUS   80        
S0194    0.05       0.2        0.05       0.1        25         PERVIOUS   50        
S0195         0.05       0.2        0.05       0.1        25         PERVIOUS   80        
S0196         0.05       0.2        0.05       0.1        25         PERVIOUS   50        
S0197    0.05       0.2        0.05       0.1        25         PERVIOUS   80        
S0198           0.05       0.2        0.05       0.1        25         PERVIOUS   50        
S0199     0.05       0.2        0.05       0.1        25         PERVIOUS   50        
S0200          0.05       0.2        0.05       0.1        25         PERVIOUS   60        
S0201      0.05       0.2        0.05       0.1        25         PERVIOUS   50        
S0202         0.05       0.2        0.05       0.1        25         PERVIOUS   80        
S0203   0.05       0.2        0.05       0.1        25         PERVIOUS   80        
S0204              0.05       0.2        0.05       0.1        25         PERVIOUS   80        
S0205              0.05       0.2        0.05       0.1        25         PERVIOUS   80        
S0206        0.05       0.2        0.05       0.1        25         PERVIOUS   80        
S0207        0.05       0.2        0.05       0.1        25         PERVIOUS   80        
S0208        0.05       0.2        0.05       0.1        25         PERVIOUS   80        
S0209        0.05       0.2        0.05       0.1        25         PERVIOUS   80        
S0210        0.05       0.2        0.05       0.1        25         PERVIOUS   80        
S0211            0.05       0.2        0.05       0.1        25         PERVIOUS   50        
S0212       0.05       0.2        0.05       0.1        25         PERVIOUS   60        
S0213 0.05       0.2        0.05       0.1        25         PERVIOUS   80        
S0214          0.05       0.2        0.05       0.1        25         PERVIOUS   80        
S0215             0.05       0.2        0.05       0.1        25         PERVIOUS   40        
S0216         0.05       0.2        0.05       0.1        25         PERVIOUS   80        
S0217   0.05       0.2        0.05       0.1        25         PERVIOUS   50        
S0218            0.05       0.2        0.05       0.1        25         PERVIOUS   80        
S0219        0.05       0.2        0.05       0.1        25         PERVIOUS   80        
S0220  0.05       0.2        0.05       0.1        25         PERVIOUS   80        
S0221            0.05       0.2        0.05       0.1        25         PERVIOUS   80        
S0222      0.05       0.2        0.05       0.1        25         PERVIOUS   50        
S0223        0.05       0.2        0.05       0.1        25         PERVIOUS   80        
S0224        0.05       0.2        0.05       0.1        25         PERVIOUS   80        
S0225          0.05       0.2        0.05       0.1        25         PERVIOUS   80        
S0226    0.05       0.2        0.05       0.1        25         PERVIOUS   60        
S0227          0.05       0.2        0.05       0.1        25         PERVIOUS   80        
S0228    0.05       0.2        0.05       0.1        25         PERVIOUS   80        
S0229           0.05       0.2        0.05       0.1        25         PERVIOUS   80        
S0230     0.05       0.2        0.05       0.1        25         PERVIOUS   80        
S0231          0.05       0.2        0.05       0.1        25         PERVIOUS   80        
S0232    0.05       0.2        0.05       0.1        25         PERVIOUS   80        
S0233     0.05       0.2        0.05       0.1        25         PERVIOUS   60        
S0234         0.05       0.2        0.05       0.1        25         PERVIOUS   50        
S0235           0.05       0.2        0.05       0.1        25         PERVIOUS   40        
S0236         0.05       0.2        0.05       0.1        25         PERVIOUS   80        
S0237         0.05       0.2        0.05       0.1        25         PERVIOUS   40        
S0238            0.05       0.2        0.05       0.1        25         PERVIOUS   80        
S0239      0.05       0.2        0.05       0.1        25         PERVIOUS   80        
S0240           0.05       0.2        0.05       0.1        25         PERVIOUS   80        
S0241      0.05       0.2        0.05       0.1        25         PERVIOUS   80        
S0242      0.05       0.2        0.05       0.1        25         PERVIOUS   80        
S0243      0.05       0.2        0.05       0.1        25         PERVIOUS   80        
S0244      0.05       0.2        0.05       0.1        25         PERVIOUS   80        
S0245        0.05       0.2        0.05       0.1        25         PERVIOUS   50        
S0246       0.05       0.2        0.05       0.1        25         PERVIOUS   60        
S0247             0.05       0.2        0.05       0.1        25         PERVIOUS   50        
S0248             0.05       0.2        0.05       0.1        25         PERVIOUS   50        
S0249       0.05       0.2        0.05       0.1        25         PERVIOUS   50        
S0250           0.05       0.2        0.05       0.1        25         PERVIOUS   80        
S0251     0.05       0.2        0.05       0.1        25         PERVIOUS   50        
S0252            0.05       0.2        0.05       0.1        25         PERVIOUS   80        
S0253           0.05       0.2        0.05       0.1        25         PERVIOUS   80        
S0254      0.05       0.2        0.05       0.1        25         PERVIOUS   60        
S0255         0.05       0.2        0.05       0.1        25         PERVIOUS   80        
S0256         0.05       0.2        0.05       0.1        25         PERVIOUS   80        
S0257         0.05       0.2        0.05       0.1        25         PERVIOUS   80        
S0258        0.05       0.2        0.05       0.1        25         PERVIOUS   80        
S0259        0.05       0.2        0.05       0.1        25         PERVIOUS   50        
S0260        0.05       0.2        0.05       0.1        25         PERVIOUS   80        
S0261       0.05       0.2        0.05       0.1        25         PERVIOUS   80        
S0262       0.05       0.2        0.05       0.1        25         PERVIOUS   80        
S0263           0.05       0.2        0.05       0.1        25         PERVIOUS   80        
S0264            0.05       0.2        0.05       0.1        25         PERVIOUS   50        
S0265        0.05       0.2        0.05       0.1        25         PERVIOUS   80        
S0266  0.05       0.2        0.05       0.1        25         PERVIOUS   80        
S0267       0.05       0.2        0.05       0.1        25         PERVIOUS   80        
S0268            0.05       0.2        0.05       0.1        25         PERVIOUS   80        
S0269             0.05       0.2        0.05       0.1        25         PERVIOUS   80        
S0270           0.05       0.2        0.05       0.1        25         PERVIOUS   80        
S0271           0.05       0.2        0.05       0.1        25         PERVIOUS   80        
S0272        0.05       0.2        0.05       0.1        25         PERVIOUS   30        
S0273    0.05       0.2        0.05       0.1        25         PERVIOUS   50        
S0274     0.05       0.2        0.05       0.1        25         PERVIOUS   60        
S0275 0.05     0.2        0.05       0.1        25         PERVIOUS   80        
S0276      0.05       0.2        0.05       0.1        25         PERVIOUS   80        
S0277      0.05       0.2        0.05       0.1        25         PERVIOUS   50        
S0278 0.05      0.2        0.05       0.1        25         PERVIOUS   80        
S0279         0.05       0.2        0.05       0.1        25         PERVIOUS   80        
S0280       0.05       0.2        0.05       0.1        25         PERVIOUS   80        
S0281    0.05       0.2        0.05       0.1        25         PERVIOUS   80        
S0282     0.05       0.2        0.05       0.1        25         PERVIOUS   80        
S0283    0.05       0.2        0.05       0.1        25         PERVIOUS   80        
S0284 0.05    0.2        0.05       0.1        25         PERVIOUS   80        
S0285    0.05       0.2        0.05       0.1        25         PERVIOUS   80        
S0286    0.05       0.2        0.05       0.1        25         PERVIOUS   80        
S0287 0.05    0.2        0.05       0.1        25         PERVIOUS   80        
S0288          0.05       0.2        0.05       0.1        25         PERVIOUS   60        
S0289    0.05       0.2        0.05       0.1        25         PERVIOUS   80        
S0290        0.05       0.2        0.05       0.1        25         PERVIOUS   50        
S0291           0.05       0.2        0.05       0.1        25         PERVIOUS   80        
S0292          0.05       0.2        0.05       0.1        25         PERVIOUS   80        
S0293    0.05       0.2        0.05       0.1        25         PERVIOUS   80        
S0294             0.05       0.2        0.05       0.1        25         PERVIOUS   80        
S0295          0.05       0.2        0.05       0.1        25         PERVIOUS   40        
S0296            0.05       0.2        0.05       0.1        25         PERVIOUS   80        
S0297       0.05       0.2        0.05       0.1        25         PERVIOUS   80        
S0298 0.05       0.2        0.05       0.1        25         PERVIOUS   80        
S0299      0.05       0.2        0.05       0.1        25         PERVIOUS   80        
S0300            0.05       0.2        0.05       0.1        25         PERVIOUS   80        
S0301        0.05       0.2        0.05       0.1        25         PERVIOUS   80        
S0302  0.05       0.2        0.05       0.1        25         PERVIOUS   50        
S0303           0.05       0.2        0.05       0.1        25         PERVIOUS   80        
S0304            0.05       0.2        0.05       0.1        25         PERVIOUS   60        
S0305      0.05       0.2        0.05       0.1        25         PERVIOUS   80        
S0306 0.05      0.2        0.05       0.1        25         PERVIOUS   50        
S0307     0.05       0.2        0.05       0.1        25         PERVIOUS   80        
S0308          0.05       0.2        0.05       0.1        25         PERVIOUS   60        
S0309    0.05       0.2        0.05       0.1        25         PERVIOUS   40        
S0310   0.05       0.2        0.05       0.1        25         PERVIOUS   50        
S0311  0.05       0.2        0.05       0.1        25         PERVIOUS   60        
S0312 0.05       0.2        0.05       0.1        25         PERVIOUS   60        
S0313            0.05       0.2        0.05       0.1        25         PERVIOUS   80        
S0314            0.05       0.2        0.05       0.1        25         PERVIOUS   50        
S0315      0.05       0.2        0.05       0.1        25         PERVIOUS   50        
S0316           0.05       0.2        0.05       0.1        25         PERVIOUS   80        
S0317       0.05       0.2        0.05       0.1        25         PERVIOUS   80        
S0318          0.05       0.2        0.05       0.1        25         PERVIOUS   80        
S0319          0.05       0.2        0.05       0.1        25         PERVIOUS   80        
S0320      0.05       0.2        0.05       0.1        25         PERVIOUS   80        
S0321 0.05      0.2        0.05       0.1        25         PERVIOUS   50        
S0322      0.05       0.2        0.05       0.1        25         PERVIOUS   60        
S0323 0.05      0.2        0.05       0.1        25         PERVIOUS   50        
S0324      0.05       0.2        0.05       0.1        25         PERVIOUS   80        
S0325 0.05      0.2        0.05       0.1        25         PERVIOUS   50        
S0326         0.05       0.2        0.05       0.1        25         PERVIOUS   60        
S0327   0.05       0.2        0.05       0.1        25         PERVIOUS   80        
S0328             0.05       0.2        0.05       0.1        25         PERVIOUS   80        
S0329       0.05       0.2        0.05       0.1        25         PERVIOUS   50        

[INFILTRATION]
S0001     4.3        0.86       0.23       0          0         
S0002 4.3      0.86       0.23       0          0         
S0003             4.3        0.86       0.23       0          0         
S0004             4.3        0.86       0.23       0          0         
S0005        4.3        0.86       0.23       0          0         
S0006        4.3        0.86       0.23       0          0         
S0007       4.3        0.86       0.23       0          0         
S0008             4.3        0.86       0.23       0          0         
S0009      4.3        0.86       0.23       0          0         
S0010         4.3        0.86       0.23       0          0         
S0011      4.3        0.86       0.23       0          0         
S0012       4.3        0.86       0.23       0          0         
S0013     4.3        0.86       0.23       0          0         
S0014    4.3        0.86       0.23       0          0         
S0015             4.3        0.86       0.23       0          0         
S0016    4.3        0.86       0.23       0          0         
S0017     4.3        0.86       0.23       0          0         
S0018     4.3        0.86       0.23       0          0         
S0019      4.3        0.86       0.23       0          0         
S0020 4.3       0.86       0.23       0          0         
S0021       4.3        0.86       0.23       0          0         
S0022     4.3        0.86       0.23       0          0         
S0023        4.3        0.86       0.23       0          0         
S0024         4.3        0.86       0.23       0          0         
S0025 4.3     0.86       0.23       0          0         
S0026     4.3        0.86       0.23       0          0         
S0027        4.3        0.86       0.23       0          0         
S0028  4.3        0.86       0.23       0          0         
S0029   4.3        0.86       0.23       0          0         
S0030 4.3        0.86       0.23       0          0         
S0031    4.3        0.86       0.23       0          0         
S0032    4.3        0.86       0.23       0          0         
S0033       4.3        0.86       0.23       0          0         
S0034        4.3        0.86       0.23       0          0         
S0035     4.3        0.86       0.23       0          0         
S0036 4.3      0.86       0.23       0          0         
S0037    4.3        0.86       0.23       0          0         
S0038 4.3     0.86       0.23       0          0         
S0039       4.3        0.86       0.23       0          0         
S0040      4.3        0.86       0.23       0          0         
S0041      4.3        0.86       0.23       0          0         
S0042 4.3       0.86       0.23       0          0         
S0043      4.3        0.86       0.23       0          0         
S0044 4.3       0.86       0.23       0          0         
S0045      4.3        0.86       0.23       0          0         
S0046 4.3       0.86       0.23       0          0         
S0047      4.3        0.86       0.23       0          0         
S0048       4.3        0.86       0.23       0          0         
S0049         4.3        0.86       0.23       0          0         
S0050   4.3        0.86       0.23       0          0         
S0051         4.3        0.86       0.23       0          0         
S0052   4.3        0.86       0.23       0          0         
S0053        4.3        0.86       0.23       0          0         
S0054   4.3        0.86       0.23       0          0         
S0055 4.3    0.86       0.23       0          0         
S0056      4.3        0.86       0.23       0          0         
S0057 4.3       0.86       0.23       0          0         
S0058     4.3        0.86       0.23       0          0         
S0059        4.3        0.86       0.23       0          0         
S0060     4.3        0.86       0.23       0          0         
S0061    4.3        0.86       0.23       0          0         
S0062 4.3     0.86       0.23       0          0         
S0063             4.3        0.86       0.23       0          0         
S0064            4.3        0.86       0.23       0          0         
S0065      4.3        0.86       0.23       0          0         
S0066      4.3        0.86       0.23       0          0         
S0067     4.3        0.86       0.23       0          0         
S0068 4.3      0.86       0.23       0          0         
S0069      4.3        0.86       0.23       0          0         
S0070     4.3        0.86       0.23       0          0         
S0071 4.3      0.86       0.23       0          0         
S0072      4.3        0.86       0.23       0          0         
S0073 4.3       0.86       0.23       0          0         
S0074      4.3        0.86       0.23       0          0         
S0075       4.3        0.86       0.23       0          0         
S0076       4.3        0.86       0.23       0          0         
S0077        4.3        0.86       0.23       0          0         
S0078  4.3        0.86       0.23       0          0         
S0079      4.3        0.86       0.23       0          0         
S0080     4.3        0.86       0.23       0          0         
S0081     4.3        0.86       0.23       0          0         
S0082       4.3        0.86       0.23       0          0         
S0083        4.3        0.86       0.23       0          0         
S0084         4.3        0.86       0.23       0          0         
S0085       4.3        0.86       0.23       0          0         
S0086     4.3        0.86       0.23       0          0         
S0087 4.3      0.86       0.23       0          0         
S0088      4.3        0.86       0.23       0          0         
S0089 4.3       0.86       0.23       0          0         
S0090 4.3    0.86       0.23       0          0         
S0091  4.3        0.86       0.23       0          0         
S0092 4.3     0.86       0.23       0          0         
S0093  4.3        0.86       0.23       0          0         
S0094 4.3     0.86       0.23       0          0         
S0095 4.3   0.86       0.23       0          0         
S0096  4.3        0.86       0.23       0          0         
S0097 4.3     0.86       0.23       0          0         
S0098             4.3        0.86       0.23       0          0         
S0099       4.3        0.86       0.23       0          0         
S0100            4.3        0.86       0.23       0          0         
S0101      4.3        0.86       0.23       0          0         
S0102           4.3        0.86       0.23       0          0         
S0103         4.3        0.86       0.23       0          0         
S0104      4.3        0.86       0.23       0          0         
S0105        4.3        0.86       0.23       0          0         
S0106    4.3        0.86       0.23       0          0         
S0107 4.3     0.86       0.23       0          0         
S0108          4.3        0.86       0.23       0          0         
S0109     4.3        0.86       0.23       0          0         
S0110            4.3        0.86       0.23       0          0         
S0111           4.3        0.86       0.23       0          0         
S0112        4.3        0.86       0.23       0          0         
S0113  4.3        0.86       0.23       0          0         
S0114           4.3        0.86       0.23       0          0         
S0115     4.3        0.86       0.23       0          0         
S0116          4.3        0.86       0.23       0          0         
S0117     4.3        0.86       0.23       0          0         
S0118    4.3        0.86       0.23       0          0         
S0119 4.3     0.86       0.23       0          0         
S0120    4.3        0.86       0.23       0          0         
S0121 4.3     0.86       0.23       0          0         
S0122      4.3        0.86       0.23       0          0         
S0123 4.3       0.86       0.23       0          0         
S0124           4.3        0.86       0.23       0          0         
S0125     4.3        0.86       0.23       0          0         
S0126      4.3        0.86       0.23       0          0         
S0127        4.3        0.86       0.23       0          0         
S0128        4.3        0.86       0.23       0          0         
S0129        4.3        0.86       0.23       0          0         
S0130        4.3        0.86       0.23       0          0         
S0131         4.3        0.86       0.23       0          0         
S0132          4.3        0.86       0.23       0          0         
S0133         4.3        0.86       0.23       0          0         
S0134   4.3        0.86       0.23       0          0         
S0135         4.3        0.86       0.23       0          0         
S0136   4.3        0.86       0.23       0          0         
S0137          4.3        0.86       0.23       0          0         
S0138       4.3        0.86       0.23       0          0         
S0139      4.3        0.86       0.23       0          0         
S0140      4.3        0.86       0.23       0          0         
S0141      4.3        0.86       0.23       0          0         
S0142      4.3        0.86       0.23       0          0         
S0143      4.3        0.86       0.23       0          0         
S0144 4.3       0.86       0.23       0          0         
S0145      4.3        0.86       0.23       0          0         
S0146   4.3        0.86       0.23       0          0         
S0147     4.3        0.86       0.23       0          0         
S0148      4.3        0.86       0.23       0          0         
S0149      4.3        0.86       0.23       0          0         
S0150 4.3        0.86       0.23       0          0         
S0151         4.3        0.86       0.23       0          0         
S0152       4.3        0.86       0.23       0          0         
S0153     4.3        0.86       0.23       0          0         
S0154    4.3        0.86       0.23       0          0         
S0155    4.3        0.86       0.23       0          0         
S0156         4.3        0.86       0.23       0          0         
S0157    4.3        0.86       0.23       0          0         
S0158      4.3        0.86       0.23       0          0         
S0159       4.3        0.86       0.23       0          0         
S0160         4.3        0.86       0.23       0          0         
S0161         4.3        0.86       0.23       0          0         
S0162      4.3        0.86       0.23       0          0         
S0163            4.3        0.86       0.23       0          0         
S0164      4.3        0.86       0.23       0          0         
S0165         4.3        0.86       0.23       0          0         
S0166       4.3        0.86       0.23       0          0         
S0167           4.3        0.86       0.23       0          0         
S0168     4.3        0.86       0.23       0          0         
S0169            4.3        0.86       0.23       0          0         
S0170             4.3        0.86       0.23       0          0         
S0171       4.3        0.86       0.23       0          0         
S0172           4.3        0.86       0.23       0          0         
S0173         4.3        0.86       0.23       0          0         
S0174        4.3        0.86       0.23       0          0         
S0175  4.3        0.86       0.23       0          0         
S0176            4.3        0.86       0.23       0          0         
S0177      4.3        0.86       0.23       0          0         
S0178 4.3       0.86       0.23       0          0         
S0179           4.3        0.86       0.23       0          0         
S0180           4.3        0.86       0.23       0          0         
S0181           4.3        0.86       0.23       0          0         
S0182         4.3        0.86       0.23       0          0         
S0183      4.3        0.86       0.23       0          0         
S0184      4.3        0.86       0.23       0          0         
S0185 4.3       0.86       0.23       0          0         
S0186          4.3        0.86       0.23       0          0         
S0187         4.3        0.86       0.23       0          0         
S0188   4.3        0.86       0.23       0          0         
S0189         4.3        0.86       0.23       0          0         
S0190   4.3        0.86       0.23       0          0         
S0191         4.3        0.86       0.23       0          0         
S0192           4.3        0.86       0.23       0          0         
S0193          4.3        0.86       0.23       0          0         
S0194    4.3        0.86       0.23       0          0         
S0195         4.3        0.86       0.23       0          0         
S0196         4.3        0.86       0.23       0          0         
S0197    4.3        0.86       0.23       0          0         
S0198           4.3        0.86       0.23       0          0         
S0199     4.3        0.86       0.23       0          0         
S0200          4.3        0.86       0.23       0          0         
S0201      4.3        0.86       0.23       0          0         
S0202         4.3        0.86       0.23       0          0         
S0203   4.3        0.86       0.23       0          0         
S0204              4.3        0.86       0.23       0          0         
S0205              4.3        0.86       0.23       0          0         
S0206        4.3        0.86       0.23       0          0         
S0207        4.3        0.86       0.23       0          0         
S0208        4.3        0.86       0.23       0          0         
S0209        4.3        0.86       0.23       0          0         
S0210        4.3        0.86       0.23       0          0         
S0211            4.3        0.86       0.23       0          0         
S0212       4.3        0.86       0.23       0          0         
S0213 4.3        0.86       0.23       0          0         
S0214          4.3        0.86       0.23       0          0         
S0215             4.3        0.86       0.23       0          0         
S0216         4.3        0.86       0.23       0          0         
S0217   4.3        0.86       0.23       0          0         
S0218            4.3        0.86       0.23       0          0         
S0219        4.3        0.86       0.23       0          0         
S0220  4.3        0.86       0.23       0          0         
S0221            4.3        0.86       0.23       0          0         
S0222      4.3        0.86       0.23       0          0         
S0223        4.3        0.86       0.23       0          0         
S0224        4.3        0.86       0.23       0          0         
S0225          4.3        0.86       0.23       0          0         
S0226    4.3        0.86       0.23       0          0         
S0227          4.3        0.86       0.23       0          0         
S0228    4.3        0.86       0.23       0          0         
S0229           4.3        0.86       0.23       0          0         
S0230     4.3        0.86       0.23       0          0         
S0231          4.3        0.86       0.23       0          0         
S0232    4.3        0.86       0.23       0          0         
S0233     4.3        0.86       0.23       0          0         
S0234         4.3        0.86       0.23       0          0         
S0235           4.3        0.86       0.23       0          0         
S0236         4.3        0.86       0.23       0          0         
S0237         4.3        0.86       0.23       0          0         
S0238            4.3        0.86       0.23       0          0         
S0239      4.3        0.86       0.23       0          0         
S0240           4.3        0.86       0.23       0          0         
S0241      4.3        0.86       0.23       0          0         
S0242      4.3        0.86       0.23       0          0         
S0243      4.3        0.86       0.23       0          0         
S0244      4.3        0.86       0.23       0          0         
S0245        4.3        0.86       0.23       0          0         
S0246       4.3        0.86       0.23       0          0         
S0247             4.3        0.86       0.23       0          0         
S0248             4.3        0.86       0.23       0          0         
S0249       4.3        0.86       0.23       0          0         
S0250           4.3        0.86       0.23       0          0         
S0251     4.3        0.86       0.23       0          0         
S0252            4.3        0.86       0.23       0          0         
S0253           4.3        0.86       0.23       0          0         
S0254      4.3        0.86       0.23       0          0         
S0255         4.3        0.86       0.23       0          0         
S0256         4.3        0.86       0.23       0          0         
S0257         4.3        0.86       0.23       0          0         
S0258        4.3        0.86       0.23       0          0         
S0259        4.3        0.86       0.23       0          0         
S0260        4.3        0.86       0.23       0          0         
S0261       4.3        0.86       0.23       0          0         
S0262       4.3        0.86       0.23       0          0         
S0263           4.3        0.86       0.23       0          0         
S0264            4.3        0.86       0.23       0          0         
S0265        4.3        0.86       0.23       0          0         
S0266  4.3        0.86       0.23       0          0         
S0267       4.3        0.86       0.23       0          0         
S0268            4.3        0.86       0.23       0          0         
S0269             4.3        0.86       0.23       0          0         
S0270           4.3        0.86       0.23       0          0         
S0271           4.3        0.86       0.23       0          0         
S0272        4.3        0.86       0.23       0          0         
S0273    4.3        0.86       0.23       0          0         
S0274     4.3        0.86       0.23       0          0         
S0275 4.3      0.86       0.23       0          0         
S0276      4.3        0.86       0.23       0          0         
S0277      4.3        0.86       0.23       0          0         
S0278 4.3       0.86       0.23       0          0         
S0279         4.3        0.86       0.23       0          0         
S0280       4.3        0.86       0.23       0          0         
S0281    4.3        0.86       0.23       0          0         
S0282     4.3        0.86       0.23       0          0         
S0283    4.3        0.86       0.23       0          0         
S0284 4.3     0.86       0.23       0          0         
S0285    4.3        0.86       0.23       0          0         
S0286    4.3        0.86       0.23       0          0         
S0287 4.3     0.86       0.23       0          0         
S0288          4.3        0.86       0.23       0          0         
S0289    4.3        0.86       0.23       0          0         
S0290        4.3        0.86       0.23       0          0         
S0291           4.3        0.86       0.23       0          0         
S0292          4.3        0.86       0.23       0          0         
S0293    4.3        0.86       0.23       0          0         
S0294             4.3        0.86       0.23       0          0         
S0295          4.3        0.86       0.23       0          0         
S0296            4.3        0.86       0.23       0          0         
S0297       4.3        0.86       0.23       0          0         
S0298 4.3        0.86       0.23       0          0         
S0299      4.3        0.86       0.23       0          0         
S0300            4.3        0.86       0.23       0          0         
S0301        4.3        0.86       0.23       0          0         
S0302  4.3        0.86       0.23       0          0         
S0303           4.3        0.86       0.23       0          0         
S0304            4.3        0.86       0.23       0          0         
S0305      4.3        0.86       0.23       0          0         
S0306 4.3       0.86       0.23       0          0         
S0307     4.3        0.86       0.23       0          0         
S0308          4.3        0.86       0.23       0          0         
S0309    4.3        0.86       0.23       0          0         
S0310   4.3        0.86       0.23       0          0         
S0311  4.3        0.86       0.23       0          0         
S0312 4.3        0.86       0.23       0          0         
S0313            4.3        0.86       0.23       0          0         
S0314            4.3        0.86       0.23       0          0         
S0315      4.3        0.86       0.23       0          0         
S0316           4.3        0.86       0.23       0          0         
S0317       4.3        0.86       0.23       0          0         
S0318          4.3        0.86       0.23       0          0         
S0319          4.3        0.86       0.23       0          0         
S0320      4.3        0.86       0.23       0          0         
S0321 4.3       0.86       0.23       0          0         
S0322      4.3        0.86       0.23       0          0         
S0323 4.3       0.86       0.23       0          0         
S0324      4.3        0.86       0.23       0          0         
S0325 4.3       0.86       0.23       0          0         
S0326         4.3        0.86       0.23       0          0         
S0327   4.3        0.86       0.23       0          0         
S0328             4.3        0.86       0.23       0          0         
S0329       4.3        0.86       0.23       0          0         

[AQUIFERS]
S0001     0.46   0.13   0.28   0.8    5      20     0.7    10     0      -43.18 -6.1   0.23         
S0002 0.46 0.13   0.28   0.8    5      20     0.7    10     0      -44.25 -1.95  0.23         
S0003             0.46   0.13   0.28   0.8    5      20     0.7    10     0      -37.3  3.38   0.23         
S0004             0.46   0.13   0.28   0.8    5      20     0.7    10     0      -36.2  1.62   0.23         
S0005        0.46   0.13   0.28   0.8    5      20     0.7    10     0      -26.25 15.25  0.23         
S0006        0.46   0.13   0.28   0.8    5      20     0.7    10     0      -45    0      0.23         
S0007       0.46   0.13   0.28   0.8    5      20     0.7    10     0      -36.94 7.82   0.23         
S0008             0.46   0.13   0.28   0.8    5      20     0.7    10     0      -13.13 28.13  0.23         
S0009      0.46   0.13   0.28   0.8    5      20     0.7    10     0      -21.4  18.88  0.23         
S0010         0.46   0.13   0.28   0.8    5      20     0.7    10     0      -13.94 26.82  0.23         
S0011      0.46   0.13   0.28   0.8    5      20     0.7    10     0      -16.64 18.73  0.23         
S0012       0.46   0.13   0.28   0.8    5      20     0.7    10     0      -14.19 27.52  0.23         
S0013     0.46   0.13   0.28   0.8    5      20     0.7    10     0      -16.47 24.12  0.23         
S0014    0.46   0.13   0.28   0.8    5      20     0.7    10     0      -18.31 24.16  0.23         
S0015             0.46   0.13   0.28   0.8    5      20     0.7    10     0      -28.4  11.13  0.23         
S0016    0.46   0.13   0.28   0.8    5      20     0.7    10     0      -41.74 -0.14  0.23         
S0017     0.46   0.13   0.28   0.8    5      20     0.7    10     0      -36.28 6.94   0.23         
S0018     0.46   0.13   0.28   0.8    5      20     0.7    10     0      -14.23 23.6   0.23         
S0019      0.46   0.13   0.28   0.8    5      20     0.7    10     0      -45.25 -1.5   0.23         
S0020 0.46  0.13   0.28   0.8    5      20     0.7    10     0      -32.86 11.63  0.23         
S0021       0.46   0.13   0.28   0.8    5      20     0.7    10     0      -42.55 -0.98  0.23         
S0022     0.46   0.13   0.28   0.8    5      20     0.7    10     0      -36.5  4.5    0.23         
S0023        0.46   0.13   0.28   0.8    5      20     0.7    10     0      -39.75 2.09   0.23         
S0024         0.46   0.13   0.28   0.8    5      20     0.7    10     0      -41.3  0.5    0.23         
S0026     0.46   0.13   0.28   0.8    5      20     0.7    10     0      -21.8  17.11  0.23         
S0027        0.46   0.13   0.28   0.8    5      20     0.7    10     0      -23.15 11.85  0.23         
S0028  0.46   0.13   0.28   0.8    5      20     0.7    10     0      -35    7      0.23         
AQ0001       0.46   0.13   0.28   0.8    5      20     0.7    10     0      -35    7      0.23         
S0031    0.46   0.13   0.28   0.8    5      20     0.7    10     0      -34.45 4.65   0.23         
S0032    0.46   0.13   0.28   0.8    5      20     0.7    10     0      -45.8  -2.1   0.23         
S0033       0.46   0.13   0.28   0.8    5      20     0.7    10     0      -21.2  12.4   0.23         
S0034        0.46   0.13   0.28   0.8    5      20     0.7    10     0      -32.05 9      0.23         
S0035     0.46   0.13   0.28   0.8    5      20     0.7    10     0      32.9   72.37  0.23         
S0036 0.46 0.13   0.28   0.8    5      20     0.7    10     0      32.8   75     0.23         
S0037    0.46   0.13   0.28   0.8    5      20     0.7    10     0      9.2    49.54  0.23         
S0038 0.46 0.13  0.28   0.8    5      20     0.7    10     0      19.6   62.3   0.23         
S0039       0.46   0.13   0.28   0.8    5      20     0.7    10     0      -4.8   36.3   0.23         
S0040      0.46   0.13   0.28   0.8    5      20     0.7    10     0      -23.5  18.8   0.23         
S0041      0.46   0.13   0.28   0.8    5      20     0.7    10     0      -4.8   36.3   0.23         
S0042 0.46  0.13   0.28   0.8    5      20     0.7    10     0      35.07  76.28  0.23         
S0043      0.46   0.13   0.28   0.8    5      20     0.7    10     0      -30.95 9.5    0.23         
S0044 0.46  0.13   0.28   0.8    5      20     0.7    10     0      -39.2  2.6    0.23         
S0045      0.46   0.13   0.28   0.8    5      20     0.7    10     0      -38.2  0.5    0.23         
S0046 0.46  0.13   0.28   0.8    5      20     0.7    10     0      -38.54 -2.49  0.23         
S0047      0.46   0.13   0.28   0.8    5      20     0.7    10     0      6      47.6   0.23         
S0048       0.46   0.13   0.28   0.8    5      20     0.7    10     0      -41.05 0      0.23         
S0049         0.46   0.13   0.28   0.8    5      20     0.7    10     0      -38.4  4      0.23         
S0050   0.46   0.13   0.28   0.8    5      20     0.7    10     0      -38.11 0.79   0.23         
S0051         0.46   0.13   0.28   0.8    5      20     0.7    10     0      -14.66 20.34  0.23         
S0052   0.46   0.13   0.28   0.8    5      20     0.7    10     0      -18.9  19.45  0.23         
S0053        0.46   0.13   0.28   0.8    5      20     0.7    10     0      -14.66 20.34  0.23         
S0054   0.46   0.13   0.28   0.8    5      20     0.7    10     0      -2.53  33.07  0.23         
S0055 0.46 0.13 0.28   0.8    5      20     0.7    10     0      -4.53  36.57  0.23         
S0056      0.46   0.13   0.28   0.8    5      20     0.7    10     0      -14.66 20.34  0.23         
S0057 0.46  0.13   0.28   0.8    5      20     0.7    10     0      -18.9  19.45  0.23         
S0058     0.46   0.13   0.28   0.8    5      20     0.7    10     0      -40.2  1.3    0.23         
S0059        0.46   0.13   0.28   0.8    5      20     0.7    10     0      -40.95 0.72   0.23         
S0060     0.46   0.13   0.28   0.8    5      20     0.7    10     0      -41.2  2.3    0.23         
S0061    0.46   0.13   0.28   0.8    5      20     0.7    10     0      -41.2  2.3    0.23         
S0062 0.46 0.13  0.28   0.8    5      20     0.7    10     0      -36.15 0.45   0.23         
S0063             0.46   0.13   0.28   0.8    5      20     0.7    10     0      -42.3  1.2    0.23         
S0064            0.46   0.13   0.28   0.8    5      20     0.7    10     0      -42.3  1.2    0.23         
S0065      0.46   0.13   0.28   0.8    5      20     0.7    10     0      -36.15 0.45   0.23         
S0066      0.46   0.13   0.28   0.8    5      20     0.7    10     0      -40    4      0.23         
S0067     0.46   0.13   0.28   0.8    5      20     0.7    10     0      -40    4      0.23         
S0068 0.46 0.13   0.28   0.8    5      20     0.7    10     0      -36.15 0.45   0.23         
S0069      0.46   0.13   0.28   0.8    5      20     0.7    10     0      -34.65 6.95   0.23         
S0070     0.46   0.13   0.28   0.8    5      20     0.7    10     0      -34.65 6.95   0.23         
S0071 0.46 0.13   0.28   0.8    5      20     0.7    10     0      -36.15 0.45   0.23         
S0072      0.46   0.13   0.28   0.8    5      20     0.7    10     0      -24.15 17.05  0.23         
S0073 0.46  0.13   0.28   0.8    5      20     0.7    10     0      -36.15 0.45   0.23         
S0074      0.46   0.13   0.28   0.8    5      20     0.7    10     0      -24.15 17.05  0.23         
S0075       0.46   0.13   0.28   0.8    5      20     0.7    10     0      -11.83 29.17  0.23         
S0076       0.46   0.13   0.28   0.8    5      20     0.7    10     0      -19.75 23.75  0.23         
S0077        0.46   0.13   0.28   0.8    5      20     0.7    10     0      -14    29.5   0.23         
S0079      0.46   0.13   0.28   0.8    5      20     0.7    10     0      20.53  63.45  0.23         
S0080     0.46   0.13   0.28   0.8    5      20     0.7    10     0      6.1    48.7   0.23         
S0081     0.46   0.13   0.28   0.8    5      20     0.7    10     0      -12.95 28.45  0.23         
S0082       0.46   0.13   0.28   0.8    5      20     0.7    10     0      58.1   98.8   0.23         
S0083        0.46   0.13   0.28   0.8    5      20     0.7    10     0      -20.11 24.49  0.23         
S0084         0.46   0.13   0.28   0.8    5      20     0.7    10     0      -20.28 18.52  0.23         
S0085       0.46   0.13   0.28   0.8    5      20     0.7    10     0      -24.15 17.05  0.23         
S0086     0.46   0.13   0.28   0.8    5      20     0.7    10     0      -36.86 2.17   0.23         
S0087 0.46 0.13   0.28   0.8    5      20     0.7    10     0      -37.3  4.64   0.23         
S0088      0.46   0.13   0.28   0.8    5      20     0.7    10     0      -36.86 2.17   0.23         
S0089 0.46  0.13   0.28   0.8    5      20     0.7    10     0      -37.3  4.64   0.23         
S0090 0.46 0.13 0.28   0.8    5      20     0.7    10     0      -27.18 11.34  0.23         
S0091  0.46   0.13   0.28   0.8    5      20     0.7    10     0      -27.18 11.34  0.23         
S0093  0.46   0.13   0.28   0.8    5      20     0.7    10     0      -42    -8.81  0.23         
S0096  0.46   0.13   0.28   0.8    5      20     0.7    10     0      -27.18 11.34  0.23         
S0098             0.46   0.13   0.28   0.8    5      20     0.7    10     0      -41.5  -4.82  0.23         
S0099       0.46   0.13   0.28   0.8    5      20     0.7    10     0      -45.35 -4.04  0.23         
S0100            0.46   0.13   0.28   0.8    5      20     0.7    10     0      -35.25 1.72   0.23         
S0101      0.46   0.13   0.28   0.8    5      20     0.7    10     0      -42.35 -0.1   0.23         
S0102           0.46   0.13   0.28   0.8    5      20     0.7    10     0      -45.9  -4.69  0.23         
S0103         0.46   0.13   0.28   0.8    5      20     0.7    10     0      -24.05 14.05  0.23         
S0104      0.46   0.13   0.28   0.8    5      20     0.7    10     0      -43.35 -1.37  0.23         
S0105        0.46   0.13   0.28   0.8    5      20     0.7    10     0      -2.53  33.07  0.23         
S0106    0.46   0.13   0.28   0.8    5      20     0.7    10     0      -14.2  28.15  0.23         
S0109     0.46   0.13   0.28   0.8    5      20     0.7    10     0      38     73.62  0.23         
S0110            0.46   0.13   0.28   0.8    5      20     0.7    10     0      29.4   63.3   0.23         
S0111           0.46   0.13   0.28   0.8    5      20     0.7    10     0      63.7   106.87 0.23         
S0112        0.46   0.13   0.28   0.8    5      20     0.7    10     0      -41.6  1.5    0.23         
S0113  0.46   0.13   0.28   0.8    5      20     0.7    10     0      -11.5  26.5   0.23         
S0114           0.46   0.13   0.28   0.8    5      20     0.7    10     0      26.1   64.9   0.23         
S0115     0.46   0.13   0.28   0.8    5      20     0.7    10     0      18.72  58.58  0.23         
S0116          0.46   0.13   0.28   0.8    5      20     0.7    10     0      -42.3  -7.8   0.23         
S0117     0.46   0.13   0.28   0.8    5      20     0.7    10     0      -40.3  -0.4   0.23         
S0118    0.46   0.13   0.28   0.8    5      20     0.7    10     0      15.3   53.2   0.23         
S0119 0.46 0.13  0.28   0.8    5      20     0.7    10     0      -11.5  26.5   0.23         
S0120    0.46   0.13   0.28   0.8    5      20     0.7    10     0      25.51  66.88  0.23         
S0121 0.46 0.13  0.28   0.8    5      20     0.7    10     0      -11.5  26.5   0.23         
S0122      0.46   0.13   0.28   0.8    5      20     0.7    10     0      -42    -8.81  0.23         
S0123 0.46  0.13   0.28   0.8    5      20     0.7    10     0      -42.5  1.57   0.23         
S0124           0.46   0.13   0.28   0.8    5      20     0.7    10     0      -26.92 0.48   0.23         
S0125     0.46   0.13   0.28   0.8    5      20     0.7    10     0      -39.35 -6.85  0.23         
S0126      0.46   0.13   0.28   0.8    5      20     0.7    10     0      -43.9  -8.79  0.23         
S0127        0.46   0.13   0.28   0.8    5      20     0.7    10     0      90     126.8  0.23         
S0128        0.46   0.13   0.28   0.8    5      20     0.7    10     0      56     92.7   0.23         
S0129        0.46   0.13   0.28   0.8    5      20     0.7    10     0      47     80.9   0.23         
S0130        0.46   0.13   0.28   0.8    5      20     0.7    10     0      67     103.1  0.23         
S0131         0.46   0.13   0.28   0.8    5      20     0.7    10     0      45     70.45  0.23         
S0132          0.46   0.13   0.28   0.8    5      20     0.7    10     0      102    142    0.23         
S0133         0.46   0.13   0.28   0.8    5      20     0.7    10     0      30.5   63.47  0.23         
S0134   0.46   0.13   0.28   0.8    5      20     0.7    10     0      29.2   67.57  0.23         
S0135         0.46   0.13   0.28   0.8    5      20     0.7    10     0      46.4   78.42  0.23         
S0136   0.46   0.13   0.28   0.8    5      20     0.7    10     0      32.78  78.75  0.23         
S0137          0.46   0.13   0.28   0.8    5      20     0.7    10     0      -38.2  0.5    0.23         
S0138       0.46   0.13   0.28   0.8    5      20     0.7    10     0      54.51  90.58  0.23         
S0139      0.46   0.13   0.28   0.8    5      20     0.7    10     0      54.51  90.58  0.23         
S0140      0.46   0.13   0.28   0.8    5      20     0.7    10     0      42.6   85.4   0.23         
S0141      0.46   0.13   0.28   0.8    5      20     0.7    10     0      28.4   71.62  0.23         
S0142      0.46   0.13   0.28   0.8    5      20     0.7    10     0      50     91.8   0.23         
S0143      0.46   0.13   0.28   0.8    5      20     0.7    10     0      50     91.87  0.23         
S0144 0.46  0.13   0.28   0.8    5      20     0.7    10     0      54     95.8   0.23         
S0145      0.46   0.13   0.28   0.8    5      20     0.7    10     0      57     98.69  0.23         
S0146   0.46   0.13   0.28   0.8    5      20     0.7    10     0      42.6   85.4   0.23         
S0147     0.46   0.13   0.28   0.8    5      20     0.7    10     0      -39.7  2.25   0.23         
S0148      0.46   0.13   0.28   0.8    5      20     0.7    10     0      -45.07 -4.07  0.23         
S0149      0.46   0.13   0.28   0.8    5      20     0.7    10     0      -39.98 2.12   0.23         
S0150 0.46   0.13   0.28   0.8    5      20     0.7    10     0      -44.85 -0.85  0.23         
S0151         0.46   0.13   0.28   0.8    5      20     0.7    10     0      -41.2  1.6    0.23         
S0152       0.46   0.13   0.28   0.8    5      20     0.7    10     0      -45.5  -9.78  0.23         
S0153     0.46   0.13   0.28   0.8    5      20     0.7    10     0      -49.3  -7.3   0.23         
S0154    0.46   0.13   0.28   0.8    5      20     0.7    10     0      -40.7  -1.5   0.23         
S0155    0.46   0.13   0.28   0.8    5      20     0.7    10     0      -40.66 -1.61  0.23         
S0156         0.46   0.13   0.28   0.8    5      20     0.7    10     0      -9.1   31     0.23         
S0157    0.46   0.13   0.28   0.8    5      20     0.7    10     0      53.2   92.95  0.23         
S0158      0.46   0.13   0.28   0.8    5      20     0.7    10     0      29     71     0.23         
S0159       0.46   0.13   0.28   0.8    5      20     0.7    10     0      -23.3  18.7   0.23         
S0161         0.46   0.13   0.28   0.8    5      20     0.7    10     0      -26.92 0.48   0.23         
S0163            0.46   0.13   0.28   0.8    5      20     0.7    10     0      -46.8  -2.36  0.23         
S0164      0.46   0.13   0.28   0.8    5      20     0.7    10     0      -45.35 -4.04  0.23         
S0165         0.46   0.13   0.28   0.8    5      20     0.7    10     0      -44.75 -3.85  0.23         
S0166       0.46   0.13   0.28   0.8    5      20     0.7    10     0      -23.5  14.68  0.23         
S0167           0.46   0.13   0.28   0.8    5      20     0.7    10     0      -43.9  -8.79  0.23         
S0168     0.46   0.13   0.28   0.8    5      20     0.7    10     0      -44    -8.44  0.23         
S0169            0.46   0.13   0.28   0.8    5      20     0.7    10     0      30.1   64.25  0.23         
S0170             0.46   0.13   0.28   0.8    5      20     0.7    10     0      -41    -3.4   0.23         
S0171       0.46   0.13   0.28   0.8    5      20     0.7    10     0      -47.05 -1.9   0.23         
S0172           0.46   0.13   0.28   0.8    5      20     0.7    10     0      -41.6  1.5    0.23         
S0173         0.46   0.13   0.28   0.8    5      20     0.7    10     0      -43.9  -8.79  0.23         
S0174        0.46   0.13   0.28   0.8    5      20     0.7    10     0      -40.87 -8.37  0.23         
S0175  0.46   0.13   0.28   0.8    5      20     0.7    10     0      -44    -8.44  0.23         
S0176            0.46   0.13   0.28   0.8    5      20     0.7    10     0      -41.34 1.46   0.23         
S0177      0.46   0.13   0.28   0.8    5      20     0.7    10     0      24.43  58.55  0.23         
S0178 0.46  0.13   0.28   0.8    5      20     0.7    10     0      22.19  66.15  0.23         
S0179           0.46   0.13   0.28   0.8    5      20     0.7    10     0      69.97  110.42 0.23         
S0180           0.46   0.13   0.28   0.8    5      20     0.7    10     0      -45.5  -9.78  0.23         
S0181           0.46   0.13   0.28   0.8    5      20     0.7    10     0      69.97  110.42 0.23         
S0182         0.46   0.13   0.28   0.8    5      20     0.7    10     0      -36.75 4.5    0.23         
S0183      0.46   0.13   0.28   0.8    5      20     0.7    10     0      -37.59 -0.04  0.23         
S0184      0.46   0.13   0.28   0.8    5      20     0.7    10     0      -49.61 -6.8   0.23         
S0185 0.46  0.13   0.28   0.8    5      20     0.7    10     0      -45.44 -5.34  0.23         
S0186          0.46   0.13   0.28   0.8    5      20     0.7    10     0      48.85  75.25  0.23         
S0187         0.46   0.13   0.28   0.8    5      20     0.7    10     0      -23.35 16.4   0.23         
S0188   0.46   0.13   0.28   0.8    5      20     0.7    10     0      -23.56 20.14  0.23         
S0189         0.46   0.13   0.28   0.8    5      20     0.7    10     0      -29.88 8.92   0.23         
S0190   0.46   0.13   0.28   0.8    5      20     0.7    10     0      -29.35 10.1   0.23         
S0191         0.46   0.13   0.28   0.8    5      20     0.7    10     0      -43.5  1.7    0.23         
S0192           0.46   0.13   0.28   0.8    5      20     0.7    10     0      -36.75 4.5    0.23         
S0193          0.46   0.13   0.28   0.8    5      20     0.7    10     0      -15.62 18.89  0.23         
S0194    0.46   0.13   0.28   0.8    5      20     0.7    10     0      -17.11 22.38  0.23         
S0195         0.46   0.13   0.28   0.8    5      20     0.7    10     0      46.2   83.88  0.23         
S0196         0.46   0.13   0.28   0.8    5      20     0.7    10     0      24.7   53.75  0.23         
S0198           0.46   0.13   0.28   0.8    5      20     0.7    10     0      -7.18  31.12  0.23         
S0199     0.46   0.13   0.28   0.8    5      20     0.7    10     0      -9.74  34.76  0.23         
S0200          0.46   0.13   0.28   0.8    5      20     0.7    10     0      34.45  68.3   0.23         
S0201      0.46   0.13   0.28   0.8    5      20     0.7    10     0      -41.45 -5.25  0.23         
S0202         0.46   0.13   0.28   0.8    5      20     0.7    10     0      -32.35 8.55   0.23         
S0203   0.46   0.13   0.28   0.8    5      20     0.7    10     0      -32.55 10.35  0.23         
S0204              0.46   0.13   0.28   0.8    5      20     0.7    10     0      -43.2  0.15   0.23         
S0205              0.46   0.13   0.28   0.8    5      20     0.7    10     0      -37.59 -0.04  0.23         
S0206        0.46   0.13   0.28   0.8    5      20     0.7    10     0      -42.2  -1     0.23         
S0207        0.46   0.13   0.28   0.8    5      20     0.7    10     0      -41.65 -4.7   0.23         
S0208        0.46   0.13   0.28   0.8    5      20     0.7    10     0      -43.6  -0.5   0.23         
S0210        0.46   0.13   0.28   0.8    5      20     0.7    10     0      -35    7      0.23         
S0211            0.46   0.13   0.28   0.8    5      20     0.7    10     0      -39.3  1.5    0.23         
S0212       0.46   0.13   0.28   0.8    5      20     0.7    10     0      -34.6  0.4    0.23         
S0213 0.46   0.13   0.28   0.8    5      20     0.7    10     0      -31.9  11.66  0.23         
S0214          0.46   0.13   0.28   0.8    5      20     0.7    10     0      46.7   87.89  0.23         
S0215             0.46   0.13   0.28   0.8    5      20     0.7    10     0      17.75  54.75  0.23         
S0216         0.46   0.13   0.28   0.8    5      20     0.7    10     0      37.9   79.13  0.23         
S0217   0.46   0.13   0.28   0.8    5      20     0.7    10     0      37.9   79.13  0.23         
S0218            0.46   0.13   0.28   0.8    5      20     0.7    10     0      -35.75 5.51   0.23         
S0219        0.46   0.13   0.28   0.8    5      20     0.7    10     0      -37.59 -0.04  0.23         
S0220  0.46   0.13   0.28   0.8    5      20     0.7    10     0      -41.83 -8.31  0.23         
S0221            0.46   0.13   0.28   0.8    5      20     0.7    10     0      48.85  75.25  0.23         
S0222      0.46   0.13   0.28   0.8    5      20     0.7    10     0      18.72  58.52  0.23         
S0223        0.46   0.13   0.28   0.8    5      20     0.7    10     0      -19.7  11.21  0.23         
S0224        0.46   0.13   0.28   0.8    5      20     0.7    10     0      -19.7  11.21  0.23         
S0225          0.46   0.13   0.28   0.8    5      20     0.7    10     0      -2.53  33.07  0.23         
S0226    0.46   0.13   0.28   0.8    5      20     0.7    10     0      -4.53  36.57  0.23         
S0227          0.46   0.13   0.28   0.8    5      20     0.7    10     0      -33.65 12.2   0.23         
S0228    0.46   0.13   0.28   0.8    5      20     0.7    10     0      -32.1  7.16   0.23         
S0229           0.46   0.13   0.28   0.8    5      20     0.7    10     0      -22.75 13.75  0.23         
S0230     0.46   0.13   0.28   0.8    5      20     0.7    10     0      14.75  54.25  0.23         
S0231          0.46   0.13   0.28   0.8    5      20     0.7    10     0      29.2   70.58  0.23         
S0232    0.46   0.13   0.28   0.8    5      20     0.7    10     0      -39.35 -6.85  0.23         
S0233     0.46   0.13   0.28   0.8    5      20     0.7    10     0      19.45  58.53  0.23         
S0234         0.46   0.13   0.28   0.8    5      20     0.7    10     0      7.06   53.16  0.23         
S0235           0.46   0.13   0.28   0.8    5      20     0.7    10     0      23.1   55.01  0.23         
S0236         0.46   0.13   0.28   0.8    5      20     0.7    10     0      -44.92 -7.12  0.23         
S0237         0.46   0.13   0.28   0.8    5      20     0.7    10     0      17.75  54.75  0.23         
S0238            0.46   0.13   0.28   0.8    5      20     0.7    10     0      15.56  54.06  0.23         
S0239      0.46   0.13   0.28   0.8    5      20     0.7    10     0      15.88  56.88  0.23         
S0240           0.46   0.13   0.28   0.8    5      20     0.7    10     0      -37.59 -0.04  0.23         
S0241      0.46   0.13   0.28   0.8    5      20     0.7    10     0      29     64.26  0.23         
S0242      0.46   0.13   0.28   0.8    5      20     0.7    10     0      30     59.1   0.23         
S0243      0.46   0.13   0.28   0.8    5      20     0.7    10     0      45     79.63  0.23         
S0244      0.46   0.13   0.28   0.8    5      20     0.7    10     0      45     79.63  0.23         
S0245        0.46   0.13   0.28   0.8    5      20     0.7    10     0      45.68  86.19  0.23         
S0246       0.46   0.13   0.28   0.8    5      20     0.7    10     0      36.44  69.63  0.23         
S0247             0.46   0.13   0.28   0.8    5      20     0.7    10     0      24.7   53.75  0.23         
S0248             0.46   0.13   0.28   0.8    5      20     0.7    10     0      24.43  58.55  0.23         
S0249       0.46   0.13   0.28   0.8    5      20     0.7    10     0      22.19  66.15  0.23         
S0250           0.46   0.13   0.28   0.8    5      20     0.7    10     0      41.77  83.91  0.23         
S0251     0.46   0.13   0.28   0.8    5      20     0.7    10     0      40.89  80.99  0.23         
S0252            0.46   0.13   0.28   0.8    5      20     0.7    10     0      -36.75 4.5    0.23         
S0253           0.46   0.13   0.28   0.8    5      20     0.7    10     0      35     65.63  0.23         
S0254      0.46   0.13   0.28   0.8    5      20     0.7    10     0      -44    -8.44  0.23         
S0255         0.46   0.13   0.28   0.8    5      20     0.7    10     0      -42.9  -7.5   0.23         
S0256         0.46   0.13   0.28   0.8    5      20     0.7    10     0      46.2   83.88  0.23         
S0257         0.46   0.13   0.28   0.8    5      20     0.7    10     0      39.05  78.13  0.23         
S0258        0.46   0.13   0.28   0.8    5      20     0.7    10     0      -20.28 18.52  0.23         
S0259        0.46   0.13   0.28   0.8    5      20     0.7    10     0      -2.98  41.02  0.23         
S0260        0.46   0.13   0.28   0.8    5      20     0.7    10     0      -15.6  25.39  0.23         
S0262       0.46   0.13   0.28   0.8    5      20     0.7    10     0      -41.14 -5.88  0.23         
S0263           0.46   0.13   0.28   0.8    5      20     0.7    10     0      -2.53  33.07  0.23         
S0264            0.46   0.13   0.28   0.8    5      20     0.7    10     0      -44.84 -1.04  0.23         
S0265        0.46   0.13   0.28   0.8    5      20     0.7    10     0      -44.75 -3.85  0.23         
S0266  0.46   0.13   0.28   0.8    5      20     0.7    10     0      -44.58 -2.49  0.23         
S0267       0.46   0.13   0.28   0.8    5      20     0.7    10     0      -41.6  -6.02  0.23         
S0269             0.46   0.13   0.28   0.8    5      20     0.7    10     0      -34.45 4.65   0.23         
S0270           0.46   0.13   0.28   0.8    5      20     0.7    10     0      -35    7      0.23         
S0271           0.46   0.13   0.28   0.8    5      20     0.7    10     0      -47.35 -0.93  0.23         
S0272        0.46   0.13   0.28   0.8    5      20     0.7    10     0      -27.18 11.34  0.23         
S0273    0.46   0.13   0.28   0.8    5      20     0.7    10     0      21.35  61.55  0.23         
S0274     0.46   0.13   0.28   0.8    5      20     0.7    10     0      -42.75 -2.15  0.23         
S0275 0.46 0.13   0.28   0.8    5      20     0.7    10     0      -41.58 1.45   0.23         
S0276      0.46   0.13   0.28   0.8    5      20     0.7    10     0      -45.6  -6.6   0.23         
S0277      0.46   0.13   0.28   0.8    5      20     0.7    10     0      -42.95 0.6    0.23         
S0278 0.46  0.13   0.28   0.8    5      20     0.7    10     0      -42    3.27   0.23         
S0279         0.46   0.13   0.28   0.8    5      20     0.7    10     0      -43.55 -5.75  0.23         
S0280       0.46   0.13   0.28   0.8    5      20     0.7    10     0      -45.5  -8.43  0.23         
S0281    0.46   0.13   0.28   0.8    5      20     0.7    10     0      -41.05 0      0.23         
S0282     0.46   0.13   0.28   0.8    5      20     0.7    10     0      -40.4  -9.8   0.23         
S0283    0.46   0.13   0.28   0.8    5      20     0.7    10     0      -40.66 -1.61  0.23         
S0284 0.46 0.13  0.28   0.8    5      20     0.7    10     0      -44    -6.34  0.23         
S0285    0.46   0.13   0.28   0.8    5      20     0.7    10     0      -37.59 -0.04  0.23         
S0286    0.46   0.13   0.28   0.8    5      20     0.7    10     0      -40.66 -1.61  0.23         
S0288          0.46   0.13   0.28   0.8    5      20     0.7    10     0      -29.56 9.64   0.23         
S0289    0.46   0.13   0.28   0.8    5      20     0.7    10     0      -30.31 11.49  0.23         
S0290        0.46   0.13   0.28   0.8    5      20     0.7    10     0      -43.9  -8.79  0.23         
S0291           0.46   0.13   0.28   0.8    5      20     0.7    10     0      -42.67 -2.67  0.23         
S0292          0.46   0.13   0.28   0.8    5      20     0.7    10     0      -37.59 -0.04  0.23         
S0293    0.46   0.13   0.28   0.8    5      20     0.7    10     0      -46.55 -7.55  0.23         
S0294             0.46   0.13   0.28   0.8    5      20     0.7    10     0      -41.6  1.5    0.23         
S0295          0.46   0.13   0.28   0.8    5      20     0.7    10     0      17.75  54.75  0.23         
S0296            0.46   0.13   0.28   0.8    5      20     0.7    10     0      -45.3  -9.8   0.23         
S0297       0.46   0.13   0.28   0.8    5      20     0.7    10     0      -37.59 -0.04  0.23         
S0298 0.46   0.13   0.28   0.8    5      20     0.7    10     0      -38.23 0.07   0.23         
S0299      0.46   0.13   0.28   0.8    5      20     0.7    10     0      -37.59 -0.04  0.23         
S0301        0.46   0.13   0.28   0.8    5      20     0.7    10     0      38     79.71  0.23         
S0302  0.46   0.13   0.28   0.8    5      20     0.7    10     0      38.28  77.2   0.23         
S0303           0.46   0.13   0.28   0.8    5      20     0.7    10     0      -36.6  6.42   0.23         
S0304            0.46   0.13   0.28   0.8    5      20     0.7    10     0      26.5   62.1   0.23         
S0305      0.46   0.13   0.28   0.8    5      20     0.7    10     0      -32.2  9.3    0.23         
S0306 0.46  0.13   0.28   0.8    5      20     0.7    10     0      -17.11 22.38  0.23         
S0307     0.46   0.13   0.28   0.8    5      20     0.7    10     0      -32.2  9.3    0.23         
S0308          0.46   0.13   0.28   0.8    5      20     0.7    10     0      -41.05 0      0.23         
S0309    0.46   0.13   0.28   0.8    5      20     0.7    10     0      24.6   66.5   0.23         
S0310   0.46   0.13   0.28   0.8    5      20     0.7    10     0      25.7   65.7   0.23         
S0311  0.46   0.13   0.28   0.8    5      20     0.7    10     0      28.71  68.71  0.23         
S0312 0.46   0.13   0.28   0.8    5      20     0.7    10     0      38.1   74.48  0.23         
S0313            0.46   0.13   0.28   0.8    5      20     0.7    10     0      -36.6  6.42   0.23         
S0314            0.46   0.13   0.28   0.8    5      20     0.7    10     0      30.1   64.25  0.23         
S0315      0.46   0.13   0.28   0.8    5      20     0.7    10     0      39.1   79.7   0.23         
S0316           0.46   0.13   0.28   0.8    5      20     0.7    10     0      46.4   78.42  0.23         
S0317       0.46   0.13   0.28   0.8    5      20     0.7    10     0      -49.61 -6.8   0.23         
S0318          0.46   0.13   0.28   0.8    5      20     0.7    10     0      6      57.7   0.23         
S0319          0.46   0.13   0.28   0.8    5      20     0.7    10     0      8      59.7   0.23         
S0320      0.46   0.13   0.28   0.8    5      20     0.7    10     0      -9.6   24.6   0.23         
S0321 0.46  0.13   0.28   0.8    5      20     0.7    10     0      8.5    46.6   0.23         
S0322      0.46   0.13   0.28   0.8    5      20     0.7    10     0      10     52.7   0.23         
S0323 0.46  0.13   0.28   0.8    5      20     0.7    10     0      11.47  49.11  0.23         
S0324      0.46   0.13   0.28   0.8    5      20     0.7    10     0      26.1   64.9   0.23         
S0325 0.46  0.13   0.28   0.8    5      20     0.7    10     0      25.2   66.49  0.23         
S0326         0.46   0.13   0.28   0.8    5      20     0.7    10     0      -26.92 0.48   0.23         
S0327   0.46   0.13   0.28   0.8    5      20     0.7    10     0      20.06  60.06  0.23         
S0328             0.46   0.13   0.28   0.8    5      20     0.7    10     0      -36.75 4.5    0.23         
S0329       0.46   0.13   0.28   0.8    5      20     0.7    10     0      -6.78  36.55  0.23         

[GROUNDWATER]
S0001     S0001     2633             6.82   0.01   1.5    0      0      0      0      *      -43.18 -5.754 0.279 
S0002 S0002 N0060        5.75   0.01   1.5    0      0      0      0      *      -44.25 -1.465 0.277 
S0003             S0003             N0081            12.7   0.01   1.5    0      0      0      0      *      -37.3  3.79   0.278 
S0004             S0004             N0233           13.8   0.01   1.5    0      0      0      0      *      -36.2  2.043  0.278 
S0005        S0005        N0118            23.75  0.01   1.5    0      0      0      0      *      -26.25 15.65  0.278 
S0006        S0006        N0044            5      0.01   1.5    0      0      0      0      *      -45    0.456  0.276 
S0007       S0007       N0043            13.06  0.01   1.5    0      0      0      0      *      -36.94 8.284  0.276 
S0008             S0008             N0026            36.87  0.01   1.5    0      0      0      0      *      -13.13 28.619 0.278 
S0009      S0009      N0246           28.6   0.01   1.5    0      0      0      0      *      -21.4  19.375 0.278 
S0010         S0010         N0020            36.06  0.01   1.5    0      0      0      0      *      -13.94 27.313 0.278 
S0011      S0011      2754             33.36  0.01   1.5    0      0      0      0      *      -16.64 19.233 0.278 
S0012       S0012       6708             35.81  0.01   1.5    0      0      0      0      *      -14.19 27.998 0.277 
S0013     S0013     N0011            33.53  0.01   1.5    0      0      0      0      *      -16.47 24.603 0.277 
S0014    S0014    N0010            31.69  0.01   1.5    0      0      0      0      *      -18.31 24.579 0.276 
S0015             S0015             N0005            21.6   0.01   1.5    0      0      0      0      *      -28.4  11.61  0.277 
S0016    S0016    6694             8.26   0.01   1.5    0      0      0      0      *      -41.74 0.069  0.277 
S0017     S0017     N0018            13.72  0.01   1.5    0      0      0      0      *      -36.28 7.149  0.277 
S0018     S0018     N0014            35.77  0.01   1.5    0      0      0      0      *      -14.23 23.821 0.278 
S0019      S0019      2750             17.14  0.01   1.5    0      0      0      0      *      -45.25 8.97   0.278 
S0020 S0020 N0034          17.14  0.05   1.5    0      0      0      0      *      -32.86 11.7   0.279 
S0021       S0021       N0001            7.45   0.01   1.5    0      0      0      0      *      -42.55 -0.768 0.277 
S0022     S0022     N0036            13.5   0.01   1.5    0      0      0      0      *      -36.5  4.575  0.28  
S0023        S0023        N0321           10.25  0.01   1.5    0      0      0      0      *      -39.75 2.305  0.277 
S0024         S0024         N0052            8.7    0.01   1.5    0      0      0      0      *      -41.3  0.991  0.278 
S0026     S0026     N0592           28.2   0.01   1.5    0      0      0      0      *      -21.8  17.564 0.279 
S0027        S0027        4136             26.85  0.01   1.5    0      0      0      0      *      -23.15 12.225 0.279 
S0028  S0028  2170             15     0.01   1.5    0      0      0      0      *      -35    7.496  0.278 
S0029   AQ0001       2170             15     0.01   1.5    0      0      0      0      *      -35    7.481  0.278 
S0030 AQ0001       2170             15     0.01   1.5    0      0      0      0      *      -35    7.481  0.278 
S0031    S0031    4176             15.55  0.01   1.5    0      0      0      0      *      -34.45 5.159  0.278 
S0032    S0032    N0242           4.2    0.01   1.5    0      0      0      0      *      -45.8  -1.644 0.276 
S0033       S0033       N0306           28.8   0.01   1.5    0      0      0      0      *      -21.2  12.803 0.279 
S0034        S0034        4546             17.95  0.01   1.5    0      0      0      0      *      -32.05 9.374  0.278 
S0035     S0035     N0262          82.9   0.05   1.5    0      0      0      0      *      32.9   72.479 0.279 
S0036 S0036 N0261       82.8   0.01   1.5    0      0      0      0      *      32.8   75.347 0.278 
S0037    S0037    4698             59.2   0.05   1.5    0      0      0      0      *      9.2    49.641 0.279 
S0038 S0038 N0310     69.6   0.01   1.5    0      0      0      0      *      19.6   62.631 0.277 
S0039       S0039       N0538           45.2   0.01   1.5    0      0      0      0      *      -4.8   36.696 0.278 
S0040      S0040      4144             26.5   0.01   1.5    0      0      0      0      *      -23.5  19.129 0.278 
S0041      S0041      N0538           45.2   0.01   1.5    0      0      0      0      *      -4.8   36.685 0.278 
S0042 S0042 N0534         85.07  0.01   1.5    0      0      0      0      *      35.07  76.757 0.277 
S0043      S0043      4581             19.05  0.01   1.5    0      0      0      0      *      -30.95 9.965  0.278 
S0044 S0044 N0194         10.8   0.01   1.5    0      0      0      0      *      -39.2  3.054  0.277 
S0045      S0045      4727             11.8   0.01   1.5    0      0      0      0      *      -38.2  0.985  0.279 
S0046 S0046 N0263         11.46  0.01   1.5    0      0      0      0      *      -38.54 -1.98  0.279 
S0047      S0047      N0265           56     0.01   1.5    0      0      0      0      *      6      48.096 0.278 
S0048       S0048       4744             8.95   0.01   1.5    0      0      0      0      *      -41.05 -0.391 0.278 
S0049         S0049         5437             11.6   0.01   1.5    0      0      0      0      *      -38.4  4.316  0.277 
S0050   S0050   N0391           11.89  0.01   1.5    0      0      0      0      *      -38.11 1.173  0.278 
S0051         S0051         N0389          35     0.001  1.5    0      0      0      0      *      -14.66 32.521 0.272 
S0052   S0052   N0390       35     0.01   1.5    0      0      0      0      *      -18.9  31.074 0.278 
S0053        S0053        N0368          35     0.001  1.5    0      0      0      0      *      -16    26.639 0.278 
S0054   S0054   5695             47.47  0.015  1.5    0      0      0      0      *      -2.53  32.487 0.279 
S0055 S0055 N0155   45.47  0.001  1      0      0      0      0      *      -4.53  38.609 0.276 
S0056      S0056      N0447           35.34  0.01   1.5    0      0      0      0      *      -14.66 19.548 0.279 
S0057 S0057 N0449   31.1   0.01   1.5    0      0      0      0      *      -18.9  26.584 0.276 
S0058     S0058     2701             9.8    0.01   1.5    0      0      0      0      *      -40.2  1.789  0.277 
S0059        S0059        N0098            9.05   0.01   1.5    0      0      0      0      *      -40.95 1.204  0.278 
S0060     S0060     N0112            8.8    0.01   1.5    0      0      0      0      *      -41.2  2.778  0.277 
S0061    S0061    N0112            8.8    0.01   1.5    0      0      0      0      *      -41.2  2.748  0.278 
S0062 S0062 N0117      13.85  0.01   1.5    0      0      0      0      *      -36.15 0.506  0.279 
S0063             S0063             N0366            7.7    0.01   1.5    0      0      0      0      *      -42.3  1.684  0.277 
S0064            S0064            N0366            7.7    0.01   1.5    0      0      0      0      *      -42.3  1.612  0.279 
S0065      S0065      N0117            13.85  0.01   1.5    0      0      0      0      *      -36.15 0.501  0.279 
S0066      S0066      N0225            10     0.01   1.5    0      0      0      0      *      -40    4.482  0.277 
S0067     S0067     N0225            10     0.01   1.5    0      0      0      0      *      -40    4.459  0.277 
S0068 S0068 N0117        13.85  0.01   1.5    0      0      0      0      *      -36.15 0.501  0.279 
S0069      S0069      N0385            15.35  0.01   1.5    0      0      0      0      *      -34.65 7.419  0.278 
S0070     S0070     N0385            15.35  0.01   1.5    0      0      0      0      *      -34.65 7.43   0.278 
S0071 S0071 N0117        13.85  0.01   1.5    0      0      0      0      *      -36.15 0.503  0.279 
S0072      S0072      2971             25.85  0.01   1.5    0      0      0      0      *      -24.15 17.983 0.278 
S0073 S0073 N0117          13.85  0.01   1.5    0      0      0      0      *      -36.15 0.505  0.279 
S0074      S0074      2971             25.85  0.01   1.5    0      0      0      0      *      -24.15 17.996 0.278 
S0075       S0075       N0543           38.17  0.01   1.5    0      0      0      0      *      -11.83 29.617 0.278 
S0076       S0076       N0556           30.25  0.01   1.5    0      0      0      0      *      -19.75 24.172 0.277 
S0077        S0077        2402             36     0.01   1.5    0      0      0      0      *      -14    29.992 0.277 
S0078  S0077        2402             36     0.01   1.5    0      0      0      0      *      -14    29.992 0.277 
S0079      S0079      N0361           70.53  0.01   1.5    0      0      0      0      *      20.53  63.934 0.277 
S0080     S0080     3488             56.1   0.01   1.5    0      0      0      0      *      6.1    49.198 0.278 
S0081     S0081     3583             37.05  0.01   1.5    0      0      0      0      *      -12.95 28.952 0.278 
S0082       S0082       3992             108.1  0.01   1.5    0      0      0      0      *      58.1   99.308 0.278 
S0083        S0083        3573             29.89  0.01   1.5    0      0      0      0      *      -20.11 24.425 0.274 
S0084         S0084         3918             29.72  0.01   1.5    0      0      0      0      *      -20.28 19.009 0.278 
S0085       S0085       2971             25.85  0.01   1.5    0      0      0      0      *      -24.15 17.993 0.278 
S0086     S0086     N0058            13.14  0.01   1.5    0      0      0      0      *      -36.86 2.673  0.278 
S0087 S0087 6725         12.7   0.01   1.5    0      0      0      0      *      -37.3  5.125  0.277 
S0088      S0088      N0058            13.14  0.01   1.5    0      0      0      0      *      -36.86 2.681  0.278 
S0089 S0089 6725           12.7   0.01   1.5    0      0      0      0      *      -37.3  5.097  0.277 
S0090 S0090 4201     22.82  0.01   1.5    0      0      0      0      *      -27.18 11.824 0.279 
S0091  S0091  4201             22.82  0.01   1.5    0      0      0      0      *      -27.18 11.595 0.28  
S0092 S0091 4201           22.82  0.01   1.5    0      0      0      0      *      -27.18 11.595 0.28  
S0093  S0093  4191             8      0.01   1.5    0      0      0      0      *      -42    -8.295 0.279 
S0094 S0093 4191           8      0.01   1.5    0      0      0      0      *      -42    -8.295 0.279 
S0095 S0093 4191         8      0.01   1.5    0      0      0      0      *      -42    -8.295 0.279 
S0096  S0096  4201             22.82  0.01   1.5    0      0      0      0      *      -27.18 11.593 0.28  
S0097 S0096 4201           22.82  0.01   1.5    0      0      0      0      *      27.18  11.593 0.28  
S0098             S0098             4574             8.5    0.05   1.5    0      0      0      0      *      -41.5  -4.719 0.279 
S0099       S0099       N0530           4.65   0.01   1.5    0      0      0      0      *      -45.35 -3.546 0.278 
S0100            S0100            4568             14.75  0.01   1.5    0      0      0      0      *      -35.25 2.03   0.28  
S0101      S0101      N0609            7.65   0.01   1.5    0      0      0      0      *      -42.35 0.384  0.278 
S0102           S0102           2662             4.1    0.01   1.5    0      0      0      0      *      -45.9  -4.209 0.278 
S0103         S0103         5451             25.95  0.01   1.5    0      0      0      0      *      -24.05 14.366 0.278 
S0104      S0104      N0593           6.65   0.01   1.5    0      0      0      0      *      -43.35 -4.965 0.28  
S0105        S0105        5695             47.47  0.015  1.5    0      0      0      0      *      -2.53  32.462 0.278 
S0106    S0106    2399             35.8   0.01   1.5    0      0      0      0      *      -14.2  28.412 0.276 
S0107 S0106 2399             35.8   0.01   1.5    0      0      0      0      *      -14.2  28.412 0.276 
S0109     S0109     5290             88     0.01   1.5    0      0      0      0      *      38     73.99  0.278 
S0110            S0110            N0089            79.4   0.01   1.5    0      0      0      0      *      29.4   63.702 0.278 
S0111           S0111           N0521             113.7  0.01   1.5    0      0      0      0      *      63.7   94.845 0.279 
S0112        S0112        4939             8.4    0.01   1.5    0      0      0      0      *      -41.6  1.861  0.279 
S0113  S0113  N0094            38.5   0.01   1.5    0      0      0      0      *      -11.5  26.997 0.278 
S0114           S0114           2493             76.1   0.01   1.5    0      0      0      0      *      26.1   65.405 0.278 
S0115     S0115     N0387            68.72  0.01   1.5    0      0      0      0      *      18.72  58.929 0.278 
S0116          S0116          N0002            7.7    0.01   1.5    0      0      0      0      *      -42.3  -7.314 0.278 
S0117     S0117     N0180           9.7    0.01   1.5    0      0      0      0      *      -40.3  0.015  0.279 
S0118    S0118    N0188           65.3   0.01   1.5    0      0      0      0      *      15.3   53.66  0.279 
S0119 S0119 N0094      38.5   0.01   1.5    0      0      0      0      *      -11.5  27.001 0.278 
S0120    S0120    4808             75.51  0.01   1.5    0      0      0      0      *      25.51  67.298 0.279 
S0121 S0121 N0094      38.5   0.01   1.5    0      0      0      0      *      -11.5  27.012 0.278 
S0122      S0122      4191             8      0.01   1.5    0      0      0      0      *      -42    -8.457 0.28  
S0123 S0123 4195           7.5    0.01   1.5    0      0      0      0      *      -42.5  2.026  0.277 
S0124           S0124           N0129            23.08  0.01   1.5    0      0      0      0      *      -26.92 0.866  0.28  
S0125     S0125     N0128            10.65  0.01   1.5    0      0      0      0      *      -39.35 -6.361 0.279 
S0126      S0126      2604             6.1    0.01   1.5    0      0      0      0      *      -43.9  -8.374 0.279 
S0127        S0127        N0141            140    0.01   1.5    0      0      0      0      *      90     137.984 0.266
S0128        S0128        N0405            106    0.01   1.5    0      0      0      0      *      56     93.148 0.278 
S0129        S0129        N0570          97     0.01   1.5    0      0      0      0      *      47     81.353 0.278 
S0130        S0130        N0208            117    0.01   1.5    0      0      0      0      *      67     103.551 0.278
S0131         S0131         N0419             95     0.01   1.5    0      0      0      0      *      45     70.855 0.279 
S0132          S0132          N0204            152    0.01   1.5    0      0      0      0      *      102    123.418 0.279
S0133         S0133         N0300           80.5   0.01   1.5    0      0      0      0      *      30.5   63.941 0.279 
S0134   S0134   N0087            79.2   0.01   1.5    0      0      0      0      *      29.2   67.983 0.278 
S0135         S0135         4642             96.4   0.01   1.5    0      0      0      0      *      46.4   78.921 0.279 
S0136   S0136   N0406           82.78  0.01   1.5    0      0      0      0      *      32.78  78.957 0.273 
S0137          S0137          4727             11.8   0.01   1.5    0      0      0      0      *      -38.2  1.005  0.278 
S0138       S0138       N0437          115    0.01   1.5    0      0      0      0      *      54.51  107.3  0.278 
S0139      S0139      3359             104.51 0.01   1.5    0      0      0      0      *      54.51  91.095 0.278 
S0140      S0140      N0217             92.6   0.01   1.5    0      0      0      0      *      42.6   85.871 0.277 
S0141      S0141      N0121            78.4   0.01   1.5    0      0      0      0      *      28.4   72.031 0.277 
S0142      S0142      N0431           110.87 0.01   1.5    0      0      0      0      *      50     91.23  0.279 
S0143      S0143      N0431           110.87 0.01   1.5    0      0      0      0      *      50     91.235 0.279 
S0144 S0144 N0218          114.62 0.01   1.5    0      0      0      0      *      54     95.066 0.279 
S0145      S0145      N0443           117.69 0.01   1.5    0      0      0      0      *      57     97.821 0.278 
S0146   S0146   N0217             92.6   0.01   1.5    0      0      0      0      *      42.6   85.205 0.269 
S0147     S0147     N0083            10.3   0.01   1.5    0      0      0      0      *      -39.7  2.637  0.277 
S0148      S0148      6616             4.93   0.01   1.5    0      0      0      0      *      -45.07 -3.959 0.278 
S0149      S0149      N0314           10.02  0.01   1.5    0      0      0      0      *      -39.98 2.12   0.278 
S0150 S0150 N0498            5.15   0.01   1.5    0      0      0      0      *      -44.85 -0.848 0.274 
S0151         S0151         N0315           8.8    0.01   1.5    0      0      0      0      *      -41.2  2.085  0.277 
S0152       S0152       6635             4.5    0.01   1.5    0      0      0      0      *      -45.5  -9.43  0.278 
S0153     S0153     2882             0.7    0.01   1.5    0      0      0      0      *      -49.3  -6.714 0.277 
S0154    S0154    N0097            9.3    0.01   1.5    0      0      0      0      *      -40.7  -1.005 0.278 
S0155    S0155    N0104             9.34   0.01   1.5    0      0      0      0      *      -40.66 -1.027 0.278 
S0156         S0156         N0234           40.9   0.01   1.5    0      0      0      0      *      -9.1   31.453 0.278 
S0157    S0157    3865             103.2  0.001  1      0      0      0      0      *      53.2   95.047 0.277 
S0158      S0158      N0608            79     0.01   1.5    0      0      0      0      *      29     71.489 0.277 
S0159       S0159       N0525           26.7   0.01   1.5    0      0      0      0      *      -23.3  18.989 0.277 
S0161         S0161         N0129            23.08  0.01   1.5    0      0      0      0      *      -26.92 1.001  0.279 
S0163            S0163            N0268           3.2    0.05   1.5    0      0      0      0      *      -46.8  -2.276 0.279 
S0164      S0164      N0530           4.65   0.01   1.5    0      0      0      0      *      -45.35 -3.549 0.278 
S0165         S0165         4723             5.25   0.01   1.5    0      0      0      0      *      -44.75 -3.351 0.278 
S0166       S0166       N0006             26.5   0.01   1.5    0      0      0      0      *      -23.5  14.716 0.277 
S0167           S0167           2604             6.1    0.01   1.5    0      0      0      0      *      -43.9  -8.477 0.28  
S0168     S0168     N0281           6      0.01   1.5    0      0      0      0      *      -44    -7.935 0.279 
S0169            S0169            6898             80.1   0.01   1.5    0      0      0      0      *      30.1   64.639 0.279 
S0170             S0170             N0497            9      0.01   1.5    0      0      0      0      *      -41    -2.908 0.279 
S0171       S0171       N0047            2.95   0.01   1.5    0      0      0      0      *      -47.05 -1.445 0.275 
S0172           S0172           4939             8.4    0.01   1.5    0      0      0      0      *      -41.6  1.966  0.278 
S0173         S0173         2604             6.1    0.01   1.5    0      0      0      0      *      -43.9  -8.368 0.279 
S0174        S0174        N0280         9.13   0.01   1.5    0      0      0      0      *      -40.87 -7.855 0.279 
S0175  S0175  N0281           6      0.01   1.5    0      0      0      0      *      -44    -7.934 0.279 
S0176            S0176            N0077            8.66   0.01   1.5    0      0      0      0      *      -41.34 1.932  0.277 
S0177      S0177      N0257           74.43  0.01   1.5    0      0      0      0      *      24.43  58.91  0.278 
S0178 S0178 N0258         72.19  0.01   1.5    0      0      0      0      *      22.19  66.517 0.277 
S0179           S0179           4032             119.97 0.001  1      0      0      0      0      *      69.97  112.169 0.276
S0180           S0180           6635             4.5    0.01   1.5    0      0      0      0      *      -45.5  -9.282 0.279 
S0181           S0181           4032             119.97 0.01   1.5    0      0      0      0      *      69.97  110.921 0.278
S0182         S0182         4970             13.25  0.01   1.5    0      0      0      0      *      -36.75 4.983  0.278 
S0183      S0183      3138             12.41  0.01   1.5    0      0      0      0      *      -37.59 0.095  0.28  
S0184      S0184      N0594           0.39   0.01   1.5    0      0      0      0      *      -49.61 -6.538 0.28  
S0185 S0185 3472           4.56   0.01   1.5    0      0      0      0      *      -45.44 -4.851 0.278 
S0186          S0186          N0299           98.85  0.01   1.5    0      0      0      0      *      48.85  75.684 0.279 
S0187         S0187         N0151           26.65  0.01   1.5    0      0      0      0      *      -23.35 16.821 0.279 
S0188   S0188   5474             26.44  0.01   1.5    0      0      0      0      *      -23.56 20.587 0.277 
S0189         S0189         N0191           20.12  0.01   1.5    0      0      0      0      *      -29.88 9.414  0.278 
S0190   S0190   5475             20.65  0.01   1.5    0      0      0      0      *      -29.35 10.537 0.277 
S0191         S0191         2913             6.5    0.01   1.5    0      0      0      0      *      -43.5  2.162  0.276 
S0192           S0192           4970             13.25  0.01   1.5    0      0      0      0      *      -36.75 4.93   0.279 
S0193          S0193          5152             34.38  0.01   1.5    0      0      0      0      *      -15.62 19.387 0.279 
S0194    S0194    5123             32.89  0.001  1.5    0      0      0      0      *      -17.11 23.975 0.278 
S0195         S0195         4049             96.2   0.01   1.5    0      0      0      0      *      46.2   84.341 0.278 
S0196         S0196         N0455           74.7   0.01   1.5    0      0      0      0      *      24.7   54.155 0.279 
S0198           S0198           5068             42.82  0.001  1.5    0      0      0      0      *      -7.18  32.763 0.278 
S0199     S0199     5070             40.26  0.001  1.5    0      0      0      0      *      -9.74  36.167 0.276 
S0200          S0200          3252             84.45  0.01   1.5    0      0      0      0      *      34.45  68.727 0.279 
S0201      S0201      5104             8.55   0.001  1.5    0      0      0      0      *      -41.45 -3.616 0.279 
S0202         S0202         5427             17.65  0.01   1.5    0      0      0      0      *      -32.35 9.033  0.278 
S0203   S0203   5426             17.45  0.01   1.5    0      0      0      0      *      -32.55 10.792 0.276 
S0204              S0204              4160             6.8    0.01   1.5    0      0      0      0      *      -43.2  0.61   0.277 
S0205              S0205              3138             12.41  0.01   1.5    0      0      0      0      *      -37.59 0.392  0.279 
S0206        S0206        N0146           7.8    0.01   1.5    0      0      0      0      *      -42.2  -0.511 0.278 
S0207        S0207        3557             8.35   0.01   1.5    0      0      0      0      *      -41.65 -4.2   0.279 
S0208        S0208        N0149           6.4    0.01   1.5    0      0      0      0      *      -43.6  -0.046 0.278 
S0210        S0210        2170             15     0.01   1.5    0      0      0      0      *      -35    7.466  0.277 
S0211            S0211            5438             10.7   0.001  1.5    0      0      0      0      *      -39.3  2.521  0.276 
S0212       S0212       N0126           15.4   0.01   1.5    0      0      0      0      *      -34.6  0.768  0.28  
S0213 S0213 N0125           18.1   0.01   1.5    0      0      0      0      *      -31.9  12.121 0.277 
S0214          S0214          N0518             96.7   0.01   1.5    0      0      0      0      *      46.7   88.378 0.277 
S0215             S0215             4782             67.75  0.01   1.5    0      0      0      0      *      17.75  55.09  0.279 
S0216         S0216         N0517             87.9   0.01   1.5    0      0      0      0      *      37.9   79.635 0.278 
S0217   S0217   N0271          87.9   0.05   1.5    0      0      0      0      *      37.9   53.266 0.28  
S0218            S0218            N0084            14.25  0.01   1.5    0      0      0      0      *      -35.75 5.954  0.279 
S0219        S0219        3138             12.41  0.01   1.5    0      0      0      0      *      -37.59 0.371  0.279 
S0220  S0220  N0372            8.17   0.01   1.5    0      0      0      0      *      -41.83 -7.801 0.279 
S0221            S0221            N0299           98.85  0.01   1.5    0      0      0      0      *      48.85  75.733 0.279 
S0222      S0222      N0387            68.72  0.01   1.5    0      0      0      0      *      18.72  58.931 0.278 
S0223        S0223        N0384              30.3   0.01   1.5    0      0      0      0      *      -19.7  15.99  0.279 
S0224        S0224        3928             30.3   0.01   1.5    0      0      0      0      *      -19.7  11.717 0.279 
S0225          S0225          5695             47.47  0.015  1.5    0      0      0      0      *      -2.53  32.479 0.278 
S0226    S0226    N0155           45.47  0.001  1      0      0      0      0      *      -4.53  38.538 0.276 
S0227          S0227          5450             16.35  0.01   1.5    0      0      0      0      *      -33.65 12.478 0.277 
S0228    S0228    N0251           17.9   0.01   1.5    0      0      0      0      *      -32.1  7.641  0.278 
S0229           S0229           2340             27.25  0.01   1.5    0      0      0      0      *      -22.75 14.188 0.279 
S0230     S0230     2315             64.75  0.01   1.5    0      0      0      0      *      14.75  54.767 0.278 
S0231          S0231          N0236           79.2   0.01   1.5    0      0      0      0      *      29.2   71.048 0.278 
S0232    S0232    N0128            10.65  0.01   1.5    0      0      0      0      *      -39.35 -6.339 0.279 
S0233     S0233     2719             69.45  0.01   1.5    0      0      0      0      *      19.45  58.982 0.278 
S0234         S0234         N0271          57.06  0.05   1.5    0      0      0      0      *      7.13   53.079 0.274 
S0235           S0235           4693             73.1   0.01   1.5    0      0      0      0      *      23.1   55.355 0.279 
S0236         S0236         N0603            5.08   0.01   1.5    0      0      0      0      *      -44.92 -6.632 0.278 
S0237         S0237         4782             67.75  0.01   1.5    0      0      0      0      *      17.75  55.068 0.278 
S0238            S0238            3176             65.56  0.01   1.5    0      0      0      0      *      15.56  54.576 0.279 
S0239      S0239      3130             65.88  0.01   1.5    0      0      0      0      *      15.88  57.382 0.278 
S0240           S0240           3138             12.41  0.01   1.5    0      0      0      0      *      -37.59 0.43   0.279 
S0241      S0241      N0418            79     0.01   1.5    0      0      0      0      *      29     65.582 0.278 
S0242      S0242      N0582             80     0.01   1.5    0      0      0      0      *      30     66.411 0.278 
S0243      S0243      N0409             95     0.01   1.5    0      0      0      0      *      45     80.034 0.278 
S0244      S0244      N0429         95     0.01   1.5    0      0      0      0      *      45     70.349 0.279 
S0245        S0245        N0472         95.68  0.01   1.5    0      0      0      0      *      45.68  86.199 0.274 
S0246       S0246       N0551           86.44  0.01   1.5    0      0      0      0      *      36.44  69.665 0.276 
S0247             S0247             N0455           74.7   0.01   1.5    0      0      0      0      *      24.7   54.134 0.279 
S0248             S0248             N0257           74.43  0.01   1.5    0      0      0      0      *      24.43  58.863 0.28  
S0249       S0249       N0258           72.19  0.01   1.5    0      0      0      0      *      22.19  66.516 0.277 
S0250           S0250           N0468           91.77  0.01   1.5    0      0      0      0      *      41.77  84.39  0.277 
S0251     S0251     N0465           100    0.01   1.5    0      0      0      0      *      30     80.99  0.28  
S0252            S0252            4970             13.25  0.01   1.5    0      0      0      0      *      -36.75 4.917  0.279 
S0253           S0253           N0425             85     0.01   1.5    0      0      0      0      *      35     66.042 0.278 
S0254      S0254      N0281           6      0.01   1.5    0      0      0      0      *      -44    -8.102 0.278 
S0255         S0255         N0003            7.1    0.01   1.5    0      0      0      0      *      -42.9  -7.031 0.278 
S0256         S0256         4049             96.2   0.01   1.5    0      0      0      0      *      46.2   84.348 0.278 
S0257         S0257         N0355           89.05  0.01   1.5    0      0      0      0      *      39.05  78.633 0.278 
S0258        S0258        3918             29.72  0.01   1.5    0      0      0      0      *      -20.28 18.952 0.279 
S0259        S0259        4632             47.02  0.01   1.5    0      0      0      0      *      -2.98  41.357 0.278 
S0260        S0260        N0485           34.4   0.01   1.5    0      0      0      0      *      -15.6  25.871 0.278 
S0262       S0262       N0526             8.86   0.01   1.5    0      0      0      0      *      -41.14 -5.478 0.278 
S0263           S0263           5695             47.47  0.015  1.5    0      0      0      0      *      -2.53  32.476 0.278 
S0264            S0264            5126             5.16   0.001  1.5    0      0      0      0      *      -44.84 -0.029 0.275 
S0265        S0265        4723             5.25   0.01   1.5    0      0      0      0      *      -44.75 -3.375 0.279 
S0266  S0266  N0263           5.42   0.01   1.5    0      0      0      0      *      -44.58 -1.997 0.278 
S0267       S0267       4845             8.4    0.01   1.5    0      0      0      0      *      -41.6  -5.557 0.279 
S0269             S0269             4176             15.55  0.01   1.5    0      0      0      0      *      -34.45 5.146  0.278 
S0270           S0270           2170             15     0.01   1.5    0      0      0      0      *      -35    7.473  0.278 
S0271           S0271           N0266           2.65   0.01   1.5    0      0      0      0      *      -47.35 -0.499 0.273 
S0272        S0272        4201             22.82  0.01   1.5    0      0      0      0      *      -27.18 11.572 0.28  
S0273    S0273    N0230            71.35  0.01   1.5    0      0      0      0      *      21.35  61.736 0.277 
S0274     S0274     N0453           7.25   0.01   1.5    0      0      0      0      *      -42.75 -1.705 0.278 
S0275 S0275 N0452       8.42   0.01   1.5    0      0      0      0      *      -41.58 1.905  0.276 
S0276      S0276      N0033            4.4    0.01   1.5    0      0      0      0      *      -45.6  -6.379 0.278 
S0277      S0277      N0514            7.05   0.01   1.5    0      0      0      0      *      -42.95 0.779  0.279 
S0278 S0278 N0245         8      0.01   1.5    0      0      0      0      *      -42    3.716  0.275 
S0279         S0279         N0289           6.45   0.01   1.5    0      0      0      0      *      -43.55 -5.242 0.279 
S0280       S0280       N0339            4.5    0.01   1.5    0      0      0      0      *      -45.5  -8.217 0.278 
S0281    S0281    4744             8.95   0.01   1.5    0      0      0      0      *      -41.05 -0.382 0.279 
S0282     S0282     N0116            9.6    0.01   1.5    0      0      0      0      *      -40.4  -9.359 0.28  
S0283    S0283    N0104             9.34   0.01   1.5    0      0      0      0      *      -40.66 -1.108 0.279 
S0284 S0284 N0071      6      0.01   1.5    0      0      0      0      *      -44    -5.831 0.279 
S0285    S0285    3138             12.41  0.01   1.5    0      0      0      0      *      -37.59 0.365  0.28  
S0286    S0286    N0104             9.34   0.01   1.5    0      0      0      0      *      -40.66 -1.011 0.278 
S0288          S0288          N0544            20.44  0.01   1.5    0      0      0      0      *      -29.56 9.996  0.28  
S0289    S0289    N0539           19.69  0.01   1.5    0      0      0      0      *      -30.31 11.972 0.278 
S0290        S0290        2604             6.1    0.01   1.5    0      0      0      0      *      -43.9  -8.456 0.28  
S0291           S0291           N0379            7.33   0.01   1.5    0      0      0      0      *      -42.67 -2.192 0.279 
S0292          S0292          3138             12.41  0.01   1.5    0      0      0      0      *      -37.59 0.157  0.28  
S0293    S0293    N0380            3.45   0.01   1.5    0      0      0      0      *      -46.55 -7.041 0.278 
S0294             S0294             4939             8.4    0.01   1.5    0      0      0      0      *      -41.6  1.978  0.277 
S0295          S0295          4782             67.75  0.01   1.5    0      0      0      0      *      17.75  55.106 0.278 
S0296            S0296            N0511           4.7    0.01   1.5    0      0      0      0      *      -45.3  -9.303 0.278 
S0297       S0297       3138             12.41  0.01   1.5    0      0      0      0      *      -37.59 0.385  0.279 
S0298 S0298 N0541           11.77  0.01   1.5    0      0      0      0      *      -38.23 0.575  0.278 
S0299      S0299      3138             12.41  0.01   1.5    0      0      0      0      *      -37.59 0.201  0.28  
S0301        S0301        3228             88     0.01   1.5    0      0      0      0      *      38     80.202 0.277 
S0302  S0302  N0464           88.28  0.01   1.5    0      0      0      0      *      38.28  77.616 0.278 
S0303           S0303           N0182           13.4   0.01   1.5    0      0      0      0      *      -36.6  6.895  0.278 
S0304            S0304            N0092             76.5   0.01   1.5    0      0      0      0      *      26.5   61.509 0.278 
S0305      S0305      5122             17.8   0.01   1.5    0      0      0      0      *      -32.2  9.787  0.278 
S0306 S0306 5123           32.89  0.001  1.5    0      0      0      0      *      -17.11 23.983 0.278 
S0307     S0307     5122             17.8   0.01   1.5    0      0      0      0      *      -32.2  9.768  0.278 
S0308          S0308          4744             8.95   0.01   1.5    0      0      0      0      *      -41.05 -0.523 0.279 
S0309    S0309    N0309           74.6   0.01   1.5    0      0      0      0      *      24.6   66.835 0.278 
S0310   S0310   N0062            75.7   0.01   1.5    0      0      0      0      *      25.7   66.109 0.278 
S0311  S0311  N0063            78.71  0.01   1.5    0      0      0      0      *      28.71  69.115 0.277 
S0312 S0312 3443             88.1   0.01   1.5    0      0      0      0      *      38.1   74.928 0.278 
S0313            S0313            N0182           13.4   0.01   1.5    0      0      0      0      *      -36.6  6.852  0.279 
S0314            S0314            6898             80.1   0.01   1.5    0      0      0      0      *      30.1   64.63  0.279 
S0315      S0315      2936             89.1   0.01   1.5    0      0      0      0      *      39.1   80.061 0.279 
S0316           S0316           4642             96.4   0.01   1.5    0      0      0      0      *      46.4   78.927 0.279 
S0317       S0317       N0594           0.39   0.01   1.5    0      0      0      0      *      -49.61 -6.352 0.279 
S0318          S0318          N0583              78.6   0.01   1.5    0      0      0      0      *      8      57.098 0.279 
S0319          S0319          N0585              76.65  0.01   1.5    0      0      0      0      *      6      59.154 0.279 
S0320      S0320      N0231           40.4   0.01   1.5    0      0      0      0      *      -9.6   24.982 0.28  
S0321 S0321 N0202         58.5   0.01   1.5    0      0      0      0      *      8.5    47.014 0.278 
S0322      S0322      2867             60     0.01   1.5    0      0      0      0      *      10     53.118 0.277 
S0323 S0323 N0174          61.47  0.01   1.5    0      0      0      0      *      11.47  49.508 0.279 
S0324      S0324      2493             76.1   0.01   1.5    0      0      0      0      *      26.1   65.404 0.279 
S0325 S0325 N0461         75.2   0.01   1.5    0      0      0      0      *      25.2   66.898 0.278 
S0326         S0326         N0129            23.08  0.01   1.5    0      0      0      0      *      -26.92 0.881  0.28  
S0327   S0327   2304             70.06  0.01   1.5    0      0      0      0      *      20.06  60.564 0.278 
S0328             S0328             4970             13.25  0.01   1.5    0      0      0      0      *      -36.75 4.991  0.278 
S0329       S0329       5079             43.22  0.001  1.5    0      0      0      0      *      -6.78  37.967 0.277 

[SNOWPACKS]
SP0001            PLOWABLE   0.005000   0.007000   24.000000  0.200000   0.000000   0.000000   0.100000  
SP0001            IMPERVIOUS 0.005000   0.007000   24.000000  0.200000   0.000000   0.000000   2.000000  
SP0001            PERVIOUS   0.004000   0.004000   25.000000  0.200000   0.000000   0.000000   2.000000  
SP0001            REMOVAL    0.000000   0          0          1          0.000000   0.000000   

[JUNCTIONS]
N0001            -0.98      8.43       0          0          5000      
N0002            -7.8       15.5       0          0          5000      
N0003            -7.5       14.6       0          0          5000      
N0004            -0.4       7.66       0          0          5000      
N0005            11.13      10.47      0          0          5000      
N0006             14.68      11.82      0          0          5000      
N0007             -8         17.6       0          0          5000      
N0008            1          8.61       0          0          5000      
N0009            3.93       8.99       0          0          5000      
N0010            24.16      7.53       0          0          5000      
N0011            24.12      9.41       0          0          5000      
N0012            16.6       6.89       0          0          5000      
N0013             1          8.61       0          0          5000      
N0014            23.6       12.17      0          0          5000      
N0015            -0.61      8.06       0          0          5000      
N0016            -1.9       7.85       0          0          5000      
N0017            -0.44      6.93       0          0          5000      
N0018            6.94       6.78       0          0          5000      
N0019            0.48       6.67       0          0          5000      
N0020            26.82      9.24       0          0          5000      
N0021            18.43      16.99      0          0          5000      
N0022            1.03       8.37       0          0          5000      
N0023            2.7        7          0          0          5000      
N0024            1.53       9.5        0          0          0         
N0025            16.93      7.02       0          0          5000      
N0026            28.13      8.74       0          0          5000      
N0027            2.22       9.45       0          0          0         
N0028            2.41       7          0          0          5000      
N0029           -1.77      6.98       0          0          0         
N0030             1.58       10.24      0          0          5000      
N0031             -3.5       7.04       0          0          5000      
N0032            -1.5       6.25       0          0          5000      
N0033            -6.6       11         0          0          5000      
N0034            11.63      5.51       0          0          5000      
N0035            10.22      7.88       0          0          5000      
N0036            4.5        9          0          0          5000      
N0037           1.64       6          0          0          5000      
N0038             0.15       5.6        0          0          5000      
N0039            -2.78      6.93       0          0          5000      
N0040            -3.77      7.32       0          0          5000      
N0041            -6.85      13.21      0          0          5000      
N0042            -0.9       7.25       0          0          5000      
N0043            7.82       5.24       0          0          5000      
N0044            0          8.5        0          0          5000      
N0045            -0.59      9.09       0          0          5000      
N0046            -1         5          0          0          5000      
N0047            -1.9       4.85       0          0          5000      
N0048            -2.96      9.51       0          0          5000      
N0049            -4.61      10.4       0          0          5000      
N0050             1.38       5          0          0          5000      
N0051            7.57       9.23       0          0          5000      
N0052            0.5        8.2        0          0          5000      
N0053            -4.24      10.19      0          200        0         
2170             7          8          0          0          5000      
N0054            -8.9       14.9       4.15       200        0         
2304             60.06      10         0          0          5000      
2315             54.25      10.5       0          0          5000      
2329             52.25      10         0          0          5000      
2340             13.75      13.5       0          0          5000      
2399             28.15      7.65       0          0          5000      
2400             28.13      7.65       0          0          5000      
2402             29.5       6.5        0          0          5000      
N0055            37.7       9.5        0          0          900       
N0056            29.5       6.5        0          0          5000      
N0057            -0.94      10.7       0          0          5000      
2493             64.9       11.2       0          0          5000      
N0058            2.17       10.97      0          0          5000      
2543             -10.94     14.94      0          0          5000      
2604             -8.79      14.89      0          0          5000      
2615             -3.9       10.26      0          0          5000      
2616             -4         10.35      0          0          5000      
2633             -6.15      13.2       0          0          5000      
2636             -6.03      14.3       0          0          5000      
2637             -4.74      10.69      0          200        0         
N0059            -6         12.79      0          0          5000      
N0060            -1.95      7.7        0          200        0         
2662             -4.69      8.79       0          0          5000      
2663             -1.8       5.7        0          0          5000      
2665             -1.78      5.73       0          0          5000      
2673             0.74       7          0          0          5000      
2694             16.19      15         0          0          5000      
2695             20.88      15.15      0          0          5000      
2701             1.3        8.5        0          0          5000      
2716             78.44      21.27      0          0          5000      
2719             58.53      10.92      0          0          5000      
2747             4.7        8.4        0          0          5000      
2750             8.97       8.47       0          0          5000      
2754             18.73      14.63      0          0          5000      
2867             52.7       7.3        0          0          5000      
2875             -1.94      5.3        0          0          5000      
2880             -4.38      14         0          0          5000      
2881             1.75       5          0          0          5000      
2882             -7.2       8          0          0          5000      
2883             -0.17      0          0          200        0         
2901             0.72       5.5        0          0          5000      
N0061            -9.15      16.45      0          0          5000      
2913             1.7        4.8        0          0          5000      
2927             49.78      15.85      0          0          5000      
2936             79.7       9.4        0          0          5000      
2959             1.55       8.5        0          0          5000      
2966             11.62      14.5       0          0          5000      
2971             17.51      8          0          0          5000      
2972             17.03      9          0          0          5000      
3                0.65       9.35       0          0          5000      
3018             61.2       15         0          0          5000      
3027             79.9       19.6       0          0          5000      
3063             65.4       18.55      0          0          5000      
N0062            65.7       10         0          200        0         
3130             56.88      9          0          0          5000      
3138             -0.04      12.45      0          0          5000      
3176             54.06      11.5       0          0          5000      
3228             79.71      8.29       0          0          5000      
3252             68.3       16.15      0          0          5000      
N0063            68.71      10         0          200        0         
3259             75.6       9.2        0          0          5000      
3359             90.58      11.58      0          0          5000      
N0064            -2.7       15.7       0          0          5000      
3443             74.48      13.62      0          0          5000      
3472             -5.34      9.9        0          0          5000      
3473             -5.55      9.9        0          0          5000      
3474             0.7        10.8       0          0          5000      
3475             1.3        7.5        0          2.5        0         
3476             -2.55      14.6       0          0          5000      
3486             25.25      20.5       0          0          5000      
3488             48.7       7.4        0          0          5000      
3495             48.15      9.5        0          0          5000      
3496             45.57      12         0          0          5000      
3499             7.65       21         0          0          5000      
3501             31.45      9          0          0          5000      
3507             46.52      9.5        0          0          5000      
N0065            -2.9       11.6       0          0          5000      
3528             -10.05     14.93      0          0          5000      
3540             17.92      11.4       0          0          5000      
3543             -0.3       6          0          0          5000      
3557             -4.7       13.05      0          0          5000      
3562             1.6        11.2       0          0          5000      
3568             26.5       7.95       0          0          5000      
N0066            17         20.6       0          0          5000      
3569             25.4       6.5        0          0          0         
3573             24.49      5.4        0          0          5000      
3576             7.92       20.7       0          0          5000      
3577             18.45      10         0          0          5000      
3580             21.28      8.1        0          0          5000      
3583             28.45      8.6        0          0          5000      
3604             92.7       10.15      0          0          5000      
3862             100.25     10.19      0          0          5000      
3865             92.95      10.25      0          0          5000      
3917             24.37      4.3        0          0          5000      
3918             18.52      11.2       0          0          5000      
3919             9.49       19.91      0          0          5000      
3920             10.6       19.6       0          0          0         
3926             21.26      8.84       0          0          5000      
3928             11.21      19.09      0          0          5000      
N0067            -2.4       12.3       0          0          5000      
3935             -1.37      8.02       0          0          5000      
N0068            -1.7       8.9        0          0          5000      
N0069            -6.26      12.15      0          0          5000      
N0070            -6.25      12.3       0          0          5000      
3960             3.91       12.2       0          0          5000      
3962             4.21       12.7       0          0          5000      
3969             14         11.25      0          0          5000      
3971             13.12      15.48      0          0          5000      
3992             98.8       9.3        0          0          5000      
N0071            -6.34      12.34      0          0          5000      
4                56.55      12.9       0          0          5000      
N0072            0.7        9.95       0          0          5000      
N0073            1.67       8.9        0          0          5000      
N0074            0.4        10.15      0          0          5000      
N0075            0.498      7          0          0          5000      
4027             106.6      10.5       0          0          5000      
4029             108.1      7.06       0          0          5000      
N0076            2          7.6        0          0          5000      
N0077            1.46       7.2        0          0          5000      
4032             110.42     9.55       0          0          5000      
N0078            1.48       7.6        0          0          5000      
N0079           1.48       7.6        0          0          5000      
4049             83.88      12.32      0          0          5000      
N0080            1          9          0          0          5000      
4088             30.25      15.3       0          0          5000      
N0081            3.38       9.32       0          0          5000      
N0082            2.2        8.2        0          0          5000      
N0083            2.25       8.05       0          0          5000      
4136             11.85      15         0          0          5000      
4144             18.8       7.7        0          0          5000      
4150             5.11       10.4       0          0          5000      
4151             4.09       10.91      0          0          5000      
4160             0.15       6.65       0          0          5000      
4161             -6.41      11.36      0          0          5000      
4163             -6.46      11.41      0          0          5000      
4164             -0.75      5.23       0          0          5000      
4172             5.9        8.74       0          0          5000      
N0084            5.51       8.74       0          0          5000      
4175             6.7        7.3        0          0          5000      
4176             4.65       10.9       0          0          5000      
4191             -8.81      16.81      0          0          5000      
4195             1.57       5.93       0          0          5000      
4198             18.88      9.67       0          0          5000      
4201             11.34      11.48      0          0          5000      
4208             0.05       12.8       0          0          5000      
4219             -7.6       15.2       0          0          5000      
4246             -9.6       16.4       0          0          5000      
4247             1.19       12.5       0          0          5000      
4251             -6.38      12.83      0          0          5000      
4516             33.18      8.9        0          0          5000      
N0085           33.13      8.8        0          0          5000      
4517             33.03      7.7        0          0          5000      
4523             32         4.9        0          0          5000      
4524             23.8       13         0          0          5000      
4525             30.21      7.09       0          0          5000      
4527             29.83      7.37       0          0          5000      
4533             24.25      11.7       0          0          5000      
4543             40.64      7.97       0          0          5000      
4546             9          8.95       0          0          5000      
4551             3.17       10.08      0          0          5000      
4555             0.16       9.29       0          0          5000      
4556             0.1        9          0          0          5000      
4557             1.7        7.7        0          0          5000      
4558             2.03       6.74       0          0          5000      
4560             0.22       20.5       0          0          5000      
4562             1.32       20.5       0          0          5000      
4567             1.5        12.85      0          0          5000      
4568             1.72       13.03      0          0          5000      
4569             -1.1       8.75       0          0          5000      
4574             -4.82      13.32      0          0          5000      
4581             9.5        9.55       0          0          5000      
4582             2.41       8          0          0          5000      
4583             2.71       7.32       0          0          5000      
4594             7.6        5.3        0          0          5000      
4600             43.55      8.86       0          0          5000      
4614             35.45      9.1        0          0          5000      
N0086            70.3       7.5        0          0          5000      
4617             32.4       11.8       0          0          5000      
4625             41.43      9.77       0          0          5000      
N0087            67.57      11.63      0          0          5000      
N0088            65.28      14.42      0          0          5000      
N0089            63.3       16.1       0          0          5000      
4632             41.02      6          0          0          5000      
4633             41.08      6.22       0          0          5000      
4642             78.42      17.98      0          0          5000      
4693             55.01      18.09      0          0          5000      
4696             47.07      11.76      0          0          5000      
4698             49.54      9.66       0          0          5000      
N0090            52.1       12.1       0          0          5000      
N0091            46.3       11.9       0          0          5000      
4723             -3.85      9.1        0          0          5000      
4725             -3.07      8.39       0          0          5000      
4727             0.5        11.3       0          0          5000      
4744             -0.89      8.95       0          0          5000      
4746             -1.35      8.9        0          0          5000      
N0092             61.1       14.4       0          0          5000      
N0093             58.59      12.11      0          0          5000      
4782             54.75      13         0          0          5000      
4808             66.88      8.63       0          0          5000      
4828             -0.7       17.9       0          0          5000      
4829             2.8        8.5        0          0          5000      
N0094            26.5       12         0          0          5000      
4845             -6.02      14.42      0          0          5000      
N0095             38.8       14.8       0          0          5000      
4939             1.5        6.9        0          0          5000      
4970             4.5        8.75       0          0          5000      
N0096            68.38      4.7        0          200        0         
5                56.54      12.91      0          0          5000      
5068             31.12      11.7       0          0          5000      
5070             34.76      5.5        0          0          5000      
5079             36.55      6.67       0          0          5000      
5091             22.16      9          0          0          5000      
5092             17.55      14         0          0          5000      
5093             8.93       10.1       0          0          5000      
5095             7.4        7.3        0          0          5000      
5097             6.9        7.5        0          0          5000      
5104             -5.25      13.8       0          0          5000      
5105             -6.5       13.2       0          0          5000      
5106             -3.47      11.5       0          0          5000      
5122             9.3        8.5        0          0          5000      
5123             22.38      12         0          0          5000      
5126             -1.04      6.2        0          0          5000      
N0097            -1.5       10.8       0          0          5000      
N0098            0.72       8.6        0          0          5000      
N0099            -0.69      10.84      0          0          5000      
5152             18.89      14         0          0          5000      
N0100            -1.62      11.62      0          0          5000      
N0101            -2.62      11.57      0          0          5000      
N0102             -9.7       19.8       0          0          5000      
N0103            -9.98      15.13      0          0          5000      
N0104             -1.52      10.95      0          0          5000      
5279             74.86      14.2       0          0          5000      
5290             73.62      14.38      0          0          5000      
N0105            -3.18      12.23      0          0          5000      
N0106            0.76       6.6        0          0          5000      
5426             10.35      7.1        0          0          5000      
N0107            -1.3       8.5        0          0          5000      
5427             8.55       9.1        0          0          5000      
N0108            -7.56      14.2       0          0          5000      
5430             4.69       11.75      0          0          5000      
N0109            -3.45      9.8        0          0          5000      
5431             5.96       10.45      0          0          5000      
N0110            1.5        4.8        0          0          5000      
5432             15.5       12.5       0          0          5000      
N0111            -0.64      7          0          0          5000      
N0112            2.3        6.5        0          0          5000      
5434             14.45      12.85      0          0          5000      
N0113            13         13         0          0          0         
5435             2.18       10.65      0          0          5000      
5437             4          7.6        0          0          5000      
5438             1.5        10.25      0          0          5000      
N0114            -4.3       11.6       0          0          5000      
N0115            -0.5       7.8        0          0          5000      
5450             12.06      4.15       0          0          5000      
5451             13.86      11.9       0          0          5000      
5474             20.14      6.3        0          0          5000      
5475             10.11      10.6       0          0          5000      
N0116            -9.8       19.4       0          0          5000      
N0117            0          15.3       0          0          5000      
N0118            15.25      8.5        0          0          5000      
N0119             21.06      14.5       0          0          5000      
N0120             42.55      16.4       0          0          5000      
5695             32.1       14.4       0          0          5000      
N0121            71.62      6.78       0          0          5000      
N0122            73.19      14.71      0          0          5000      
6594             -3.7       12.2       0          0          5000      
6609             -5.95      11.95      0          0          5000      
6615             -3.9       7.6        0          0          5000      
6616             -4.07      9.5        0          0          5000      
6617             -4.03      9.3        0          0          5000      
6620             0          4.5        0          0          5000      
6622             -1.8       6.94       0          0          5000      
6623             -1.63      6.77       0          0          5000      
6624             -1.42      6.61       0          0          5000      
6626             -3.9       7.65       0          0          5000      
6627             -3.38      6.75       0          0          5000      
6628             -3.5       7.4        0          0          5000      
6633             -9.36      13.76      0          0          5000      
6634             -9.57      13.97      0          0          5000      
6635             -9.78      14.28      0          0          5000      
6642             -2.33      5.9        0          0          5000      
6643             -4.1       9.7        0          0          5000      
6644             -2.33      5.85       0          0          5000      
6645             -4         7.52       0          0          5000      
6646             -2.64      7          0          0          5000      
6649             -7.06      11.6       0          0          5000      
6650             -5.64      9.97       0          0          5000      
6651             -2.7       6.8        0          0          5000      
6662             14.66      8.34       0          0          5000      
6666             -4.94      8.89       0          0          5000      
6694             -0.14      8.4        0          0          5000      
6696             -1.54      8.99       0          0          5000      
6697             -2.6       9.8        0          0          5000      
6698             0.37       6.78       0          0          5000      
6705             -1.5       7.6        0          0          5000      
6708             27.52      8.29       0          0          5000      
6709             -1.77      6.98       3.3        0          0         
6719             -3.07      9          0          200        0         
6720             -3.1       9.04       0          0          5000      
6721             -1.2       7.65       0          0          5000      
6722             -2.34      8.24       0          0          5000      
6723             0.82       6.93       0          0          5000      
6724             3.12       6.98       0          0          5000      
6725             4.64       8.06       0          0          5000      
6734             27.08      13.92      0          0          5000      
N0123            -8.9       17.8       0          0          5000      
6753             -3.34      7.19       0          0          5000      
6760             0.8        9.4        0          0          5000      
6762             3.11       12         0          0          5000      
N0124           2.1        12.5       0          0          5000      
6767             9.85       7.8        0          0          5000      
6768             10.45      7.2        0          0          5000      
6780             5.5        8.4        0          0          5000      
6802             60.7       7.94       0          0          5000      
6803             56.5       12.95      0          0          5000      
6804             55.77      16.32      0          0          5000      
6840             1.66       8.5        0          0          5000      
6850             9.94       9          0          0          5000      
6857             6.8        8.3        0          0          5000      
6858             -0.1       14         0          0          5000      
6871             6.9        8.4        0          0          5000      
6874             -0.08      14         0          0          5000      
6898             64.25      15.85      0          0          5000      
6944             53.85      9.5        0          0          5000      
6958             0.15       23.65      0          0          5000      
6959             1.1        18.3       0          0          5000      
N0125           11.66      6.44       0          0          5000      
N0126           0.4        15         0          0          5000      
N0127           11.25      6          0          0          5000      
N0128            -6.85      17.5       0          0          5000      
N0129            0.48       22.6       0          0          5000      
N0130            34.35      7.25       0          0          5000      
N0131          30.03      6.728      0          0          0         
N0132            26.6       9          0          0          5000      
N0133            28.97      6.6        0          0          5000      
N0134            121.47     13.13      0          0          0         
N0135            123        11.15      0          0          5000      
N0136            124.75     9.65       0          0          5000      
N0137            126.8      9.4        0          0          0         
N0138            129.79     9.71       0          0          5000      
N0139            132.38     9.42       0          0          5000      
N0140            135.1      9.4        0          0          0         
N0141            138.2      9.3        0          0          5000      
N0142           1.5        8.5        0          1.5        0         
N0143          26.3       11         0          0          0         
N0144          24.09      11.5       0          0          5000      
N0145           1.54       9.25       0          1.5        0         
N0146           -1         8.8        0          0          5000      
N0147           -4.77      15.07      0          0          5000      
N0148           -3.35      9.65       0          0          5000      
N0149           -0.5       6.4        0          0          5000      
N0150           -4.77      13.77      0          0          5000      
N0151           16.4       10.25      0          0          5000      
N0152           14.86      12.82      0          0          5000      
N0153           19.85      11.3       0          200        0         
N0154           11.95      14.18      0          0          0         
N0155           36.57      8.9        0          0          0         
N0156           17.05      8.8        0          0          5000      
N0157           1.76       5.7        0          0          5000      
N0158         32.13      11.3       0          0          0         
N0159          28.73      12         0          200        0         
N0160    30.83      0          0          200        0         
N0161         29.95      13.5       0          0          5000      
N0162           21.9       7.99       0          0          5000      
N0163           12.28      7.83       0          0          5000      
N0164           0.96       8.5        0          0          5000      
N0165           0.5        6.65       0          0          5000      
N0166           0          7.15       0          0          5000      
N0167            33.74      11         0          0          0         
N0168            35.15      10.3       0          0          5000      
N0169            39.8       10.6       0          0          0         
N0170            64.28      10.72      0          0          5000      
N0171            53.47      7.92       0          0          5000      
N0172            61.67      16.43      0          0          5000      
N0173            58.57      10.71      0          0          5000      
N0174            49.11      12.36      0          0          5000      
N0175            51.46      14.28      0          0          5000      
N0176            53.92      14.36      0          0          5000      
N0177            53.97      14.48      0          0          5000      
N0178            55.41      16.71      0          0          5000      
N0179            59.55      12.73      0          0          5000      
N0180           -0.4       10.1       0          0          5000      
N0181           0.51       8.79       0          0          5000      
N0182           6.42       6.98       0          0          5000      
N0183           2.1        6.8        0          0          5000      
N0184           6.72       5.01       0          0          5000      
N0185           7.65       3.81       0          0          5000      
N0186           8.36       2.38       0          0          5000      
N0187           2.03       6.74       0          0          5000      
N0188           53.2       12.1       0          0          5000      
N0189           -1.22      12.65      0          0          5000      
N0190           -1.22      12.65      0          0          5000      
N0191           8.92       11.7       0          0          5000      
N0192           -2.2       4.5        0          0          5000      
N0193           7.1        7          0          0          5000      
N0194           2.6        8.2        0          0          5000      
N0195       3.1        0          0          500        0         
N0196           27.93      7.57       0          0          5000      
N0197           -3.1       9.81       0          0          5000      
N0198           -3.1       9.81       0          0          5000      
N0199           -3.16      9.23       0          0          5000      
N0200           0.59       9.95       0          0          5000      
N0201           0.2        9.9        0          0          5000      
N0202           46.6       11.9       0          0          5000      
N0203           52.57      7.88       0          0          5000      
N0204            123.03     7.9        0          0          0         
N0205            119.49     10.21      0          0          0         
N0206            113.69     9.3        0          0          5000      
N0207            107.71     10.09      0          0          5000      
N0208            103.1      12.2       0          0          0         
N0209            95.71      9.1        0          0          5000      
N0210            88.98      10.9       0          200        0         
N0211            84.21      11.8       0          0          5000      
N0212            81.92      13.51      0          0          0         
N0213           65.9       7.96       0          0          5000      
N0214           63.95      10         0          0          5000      
N0215            63.95      10         0          0          5000      
N0216        90.2       9.4        0          0          5000      
N0217             85.4       7.2        0          0          5000      
N0218            94.62      7.4        0          0          0         
N0219            93.954     5.646      0          0          0         
N0220           1.58       10.24      0          0          5000      
N0221            0.27       8.3        0          0          5000      
N0222            -2.7       12         0          0          5000      
N0223            -2.6       12         0          0          5000      
N0224            3.86       5.7        0          0          5000      
N0225            4          6          0          0          5000      
N0226            2.7        7          0          0          5000      
N0227            1.07       10.7       0.7        0          0         
N0228           98.58      8.97       0          0          5000      
N0229          98.58      8.97       0          0          5000      
N0230            61.55      9.8        0          0          5000      
N0231           24.6       15.8       0          0          5000      
N0232           1.72       12.28      0          0          5000      
N0233           1.62       12.18      0          0          5000      
N0234           31         9.9        0          0          5000      
N0235           60.25      12         0          0          5000      
N0236           70.58      8.62       0          0          5000      
N0237           7.9        11.12      0          0          5000      
N0238           31.78      4.57       0          0          5000      
N0239           35.83      8.29       0          0          5000      
N0240           78.54      7.9        0          0          5000      
N0241           0.5        10.3       0          0          5000      
N0242           -2.1       6.3        0          0          5000      
N0243           11.68      11.75      0          0          5000      
N0244           58.74      15.44      0          0          5000      
N0245           3.27       4.73       0          0          5000      
N0246           18.88      9.72       0          0          5000      
N0247           3.34       7.32       0          0          5000      
N0248           20.89      7.58       0          0          5000      
N0249           22.65      7.89       0          0          5000      
N0250           48.45      8          0          0          5000      
N0251           7.16       10.74      0          0          5000      
N0252           13.95      10.27      0          0          5000      
N0253           17.93      10.27      0          0          5000      
N0254           19.45      11.65      0          0          5000      
N0255           -5.57      12.5       0          0          5000      
N0256           -7.54      14.5       0          0          5000      
N0257           58.55      15.88      0          0          5000      
N0258           66.15      6.04       0          0          5000      
N0259           87.4       8.1        0          0          5000      
N0260           72.05      6.6        0          0          5000      
N0261           75         7.8        0          0          5000      
N0262          72.37      10.53      0          0          5000      
N0263           -2.49      7.91       0          0          5000      
N0264           24.9       10.8       0          0          5000      
N0265           47.6       8.4        0          0          5000      
N0266           -0.93      3.58       0          0          5000      
N0267           -0.1       8.2        0          0          5000      
N0268           -2.36      5.56       0          0          5000      
N0269           -0.37      8.1        0          0          5000      
N0270           -0.6       7          0          0          0         
N0271          53.16      3.9        0          0          5000      
N0272          46.88      6          0          0          5000      
N0273          42.89      7          0          0          5000      
N0274          41.26      4.8        0          0          5000      
N0275          40.48      3.8        0          0          5000      
N0276          39.9       4.47       0          0          5000      
N0277          31.8       4.43       0          0          5000      
N0278           -3         13.4       0          0          5000      
N0279         -7.65      18.3       0          0          5000      
N0280         -8.37      17.5       0          0          5000      
N0281           -8.44      14.44      3.69       200        0         
N0282           -1.06      5.01       0          0          5000      
N0283           -0.41      7.06       0          0          5000      
N0284           -9.66      15.66      4.91       200        0         
N0285           -7.25      13.45      2.5        200        0         
N0286           -1.96      9.2        0          0          5000      
N0287           3.12       6.98       0          0          5000      
N0288           -1.84      6          0          0          5000      
N0289           -5.75      12.2       0          0          5000      
N0290           -1.65      6.2        0          0          5000      
N0291       -11.08     15         0          0          5000      
N0292       -2.85      0          0          600        0         
N0293          -5         0          0          200        0         
N0294            0.3        7.1        0          0          5000      
N0295           -1.86      11.56      0          0          5000      
N0296           -1.12      8.42       0          0          5000      
N0297           -0.61      7.91       0          0          5000      
N0298           0.51       16.3       0          0          5000      
N0299           75.25      23.6       0          0          5000      
N0300           63.47      17.03      0          0          5000      
N0301           4.8        12.9       0          0          5000      
N0302           -8.05      13.15      0          0          5000      
N0303           -5.7       0          0          200        0         
N0304           -0.5       0          0          200        0         
N0305           -8.55      14.75      0          0          5000      
N0306           12.4       15.45      0          0          0         
N0307           43.9       15.61      0          0          5000      
N0308           63.8       7.88       0          0          5000      
N0309           66.5       8.1        0          0          5000      
N0310           62.3       7.3        0          0          5000      
N0311           46.75      6.11       0          0          5000      
N0312           4.5        9          0          0          5000      
N0313           1.89       6.68       0          0          5000      
N0314           2.12       7.9        0          0          5000      
N0315           1.6        7.2        0          0          5000      
N0316           -0.4       4.25       0          0          5000      
N0317           23.65      8.05       0          0          5000      
N0318           18.81      8.28       0          0          5000      
N0319           -0.05      12.5       0          0          0         
N0320           -0.42      7          3          0          0         
N0321           2.09       8.16       0          0          5000      
N0322           52.1       14.55      0          0          5000      
N0323           58.35      12.75      0          0          5000      
N0324           63.45      10.41      0          0          5000      
N0325           2.81       11.5       0          0          5000      
N0326           1.53       5.2        0          0          5000      
N0327           -0.25      4.7        0          0          5000      
N0328           -0.51      6          0          0          5000      
N0329            21.2       8.2        0          200        0         
N0330           27.36      14.74      0          0          5000      
N0331           42.51      9.74       0          0          5000      
N0332          41.42      10.37      0          0          5000      
N0333           40.33      11         0          0          5000      
N0334            52.7       9          0          0          5000      
N0335            2.42       8          0          0          5000      
N0336            5          8          0          0          5000      
N0337            27.76      14         0          0          5000      
N0338            32.75      9.2        0          0          5000      
N0339            -8.43      12.93      0          0          5000      
N0340            -1.6       5.8        0          0          5000      
N0341          -10        14.6       0          0          0         
N0342        -3.6       0          0          200        0         
N0343           50         23         0          0          5000      
N0344           50.42      23         0          0          5000      
N0345          0          12         0          0          5000      
N0346          0.1        17.2       0          0          5000      
N0347          0.22       14.5       0          0          5000      
N0348           0.8        6.2        0          0          5000      
N0349           -1         6.2        0          0          5000      
N0350           -2.05      8          0          0          5000      
N0351           8          5.42       0          0          5000      
N0352           0.44       6          0          0          5000      
N0353           25.46      10.19      0          0          5000      
N0354           23.5       12.3       0          0          5000      
N0355           78.13      10.92      0          0          5000      
N0356           -1.32      8.72       0          0          0         
N0357           -3.2       8.9        0          0          5000      
N0358           -3.2       8.9        0          0          0         
N0359           55.3       16         0          0          5000      
N0360           62.45      6.8        0          0          5000      
N0361           63.45      7.08       0          0          5000      
N0362           62.65      8.16       0          0          5000      
N0363           57.4       6          0          0          5000      
N0364            -4.2       11.6       0          0          5000      
N0365            0.9        7.7        0          0          5000      
N0366            1.2        6.5        0          0          5000      
N0367          0          9          0          200        0         
N0368          24.56      13.1       0          0          5000      
N0369           -3.66      12.5       0          0          5000      
N0370           72         0          0          200        0         
N0371    27.28      10.1       0          0          5000      
N0372            -8.31      16.48      0          0          5000      
N0373            -0.45      6.7        0          0          5000      
N0374            -0.9       7.66       0          0          5000      
N0375            6.95       5          0          200        0         
N0376            6.05       5          0          0          5000      
N0377            19.03      7.9        0          0          5000      
N0378            -1.36      10         0          0          5000      
N0379            -2.67      10         0          0          5000      
N0380            -7.55      11         0          0          5000      
N0381            -0.18      9.9        0          0          5000      
N0382      3.1        14.02      0          0          0         
N0383           -2.17      4.57       0          0          5000      
N0384              15.5       17         0          0          0         
N0385            6.95       8.4        0          0          5000      
N0386            0.69       9          0          0          5000      
N0387            58.52      10.2       0          0          5000      
N0388           3          0          0          200        0         
N0389          31.72      14         0          0          5000      
N0390       33.95      12         0          0          0         
N0391           0.79       11.1       0          0          5000      
N0392           0.75       11         0          0          5000      
N0393           5.5        5.2        0          0          5000      
N0394           15.2       11.2       0          0          5000      
N0395           10.1       10.6       0          0          5000      
N0396            -5.96      13.26      0          0          5000      
N0397          -0.7       10         0          0          0         
N0398          0.64       5.8        0          0          0         
N0399          0.9        8          0          0          0         
N0400          0.96       12.5       0          0          0         
N0401          0.25       7          0          0          0         
N0402            90.08      11.92      0          0          5000      
N0403            90.75      10.15      0          0          0         
N0404            91.01      9.69       0          0          0         
N0405            92.7       13.8       0          0          5000      
N0406           78.75      4.03       0          0          5000      
N0407           78.27      4.7        0          0          5000      
N0408           77.45      7.26       0          0          5000      
N0409             79.63      15.22      0          0          5000      
N0410            59.26      19.2       0          0          0         
N0411            59.1       18.9       0          0          5000      
N0412            58.78      18.3       0          0          5000      
N0413            60.49      18.51      0          0          0         
N0414            61.02      20.98      0          0          5000      
N0415            61.82      19.41      0          0          0         
N0416            62         16         0          0          0         
N0417            64.26      14.52      0          0          5000      
N0418            65.17      10.83      0          0          5000      
N0419             70.45      14.55      0          0          0         
N0420             69.76      13.4       0          0          5000      
N0421             69.42      14.58      0          0          5000      
N0422             68.73      17.27      0          0          0         
N0423             68.31      17.69      0          0          5000      
N0424             66.88      15.12      0          0          0         
N0425             65.63      15.37      0          0          0         
N0426             59.82      20.18      0          0          5000      
N0427            2.02       17.78      0          0          5000      
N0428            12.1       8.3        0          0          5000      
N0429         69.97      18.5       0          0          5000      
N0430           -0.77      6.5        2.5        0          0         
N0431           90.87      10.833     0          0          0         
N0432          101.75     8          0          0          5000      
N0433          102.98     9.8        0          0          5000      
N0434          103.72     8          0          0          0         
N0435          105.11     9.5        0          0          5000      
N0436          106.64     7.7        0          0          0         
N0437          107.29     10.1       0          0          0         
N0438           92.03      11.416     0          0          5000      
N0439           93.13      11.75      0          0          5000      
N0440           93.66      12.25      0          0          0         
N0441           95.08      12.916     0          0          5000      
N0442           96.03      11         0          0          5000      
N0443           97.69      11.6       0          0          0         
N0444           99.2       11.3       0          0          5000      
N0445           99.52      10.59      0          0          0         
N0446        98.83      9.25       0          0          0         
N0447           19.05      12         0          200        0         
N0448           23.16      13.5       0          0          5000      
N0449     26.14      10.6       0          0          5000      
N0450          22.05      12.4       0          0          0         
N0451          21.46      6          0          200        0         
N0452           1.45       6.97       0          0          5000      
N0453           -2.15      9.4        0          0          5000      
N0454        4.47       15.78      0          0          5000      
N0455           53.75      20.95      0          0          5000      
N0456           82.39      8.76       0          0          5000      
N0457           84.7       7.05       0          0          5000      
N0458           87.93      8          0          0          5000      
N0459           61.73      14.51      0          0          5000      
N0460           61.92      14.29      0          0          5000      
N0461           66.49      8.71       0          0          5000      
N0462           73.1       10.27      0          0          5000      
N0463           71.13      7.65       0          0          5000      
N0464           77.2       11.08      0          0          5000      
N0465           80.99      9.9        0          0          5000      
N0466           82.99      9.53       0          0          5000      
N0467           82.52      8.48       0          0          5000      
N0468           83.91      7.86       0          0          5000      
N0469           67.52      10.87      0          0          5000      
N0470           67.45      11.32      0          0          5000      
N0471           70.3       8.75       0          0          5000      
N0472         86.19      9.49       0          0          5000      
N0473           40.82      9.9        0          200        0         
N0474           41.67      9.9        0          0          0         
N0475           47.6       9.9        0          0          5000      
N0476           50.83      10         0          0          0         
N0477           53.521     10         0          0          0         
N0478           56.34      9.9        0          0          5000      
N0479           60.93      7.5        0          0          5000      
N0480           63.78      9.1        0          0          0         
N0481           0.8        7.5        0          0          5000      
N0482           -6.3       13.6       0          0          5000      
N0483            33.18      10.82      0          0          5000      
N0484           8.92       20.48      0          0          5000      
N0485           25.39      9.01       0          0          5000      
N0486           43.34      8.46       0          0          5000      
N0487           44.66      10.35      0          0          5000      
N0488           15.5       11.3       0          0          5000      
N0489           42.54      8.6        0          0          5000      
N0490           38.86      8.7        0          0          5000      
N0491           -0.08      28.72      0          0          5000      
N0492           42.54      8.6        0          0          5000      
N0493           40.52      6          0          0          5000      
N0494            -4.5       10.1       0          0          5000      
N0495            -4.4       10.4       0          0          5000      
N0496            -3.5       11.7       0          0          5000      
N0497            -3.4       12.4       0          0          5000      
N0498            -0.85      6          0          0          5000      
N0499            -6.32      10.37      0          0          5000      
N0500            -4.2       6.75       0          0          5000      
N0501            -0.62      8.07       0          0          5000      
N0502            -0.69      8.14       0          0          5000      
N0503            -2.33      8.43       0          0          5000      
N0504            -1.3       7.79       0          0          5000      
N0505            -3.4       7.04       0          0          5000      
N0506            -0.44      6.93       0          0          5000      
N0507            -4.68      9.5        0          0          5000      
N0508            -4.55      9.5        0          0          5000      
N0509            -4.41      10.06      0          0          5000      
N0510            -3.85      10.2       0          0          5000      
N0511           -9.8       14.5       0          0          5000      
N0512            -6.27      12.32      0          0          5000      
N0513            -5.99      10.3       0          0          5000      
N0514            0.6        6.45       0          0          5000      
N0515            1.28       4.37       0          0          5000      
N0516             58.08      9.22       0          0          5000      
N0517             79.13      8.77       0          0          5000      
N0518             87.89      8.81       0          0          5000      
N0519             91.26      13.74      0          0          0         
N0520             93.9       7.1        0          0          5000      
N0521             94.35      7.67       0          0          5000      
N0522             109.33     5.67       0          200        0         
N0523             80.4       0          0          200        0         
N0524             97.6       0          0          200        0         
N0525           18.7       8          0          0          5000      
N0526             -5.88      14.74      0          0          5000      
N0527           4.47       15.78      0          0          5000      
N0528           19.5       15.7       0          0          5000      
N0529           23.6       15.3       0          0          5000      
N0530           -4.04      8.69       0          0          5000      
N0531           31.44      6.03       0          0          5000      
N0532           34.86      6.76       0          0          5000      
N0533           44.67      8.31       0          0          5000      
N0534           76.28      8.79       0          0          5000      
N0535           95.05      6.95       0          0          5000      
N0536           122.35     4.76       0          0          5000      
N0537           1.4        14.4       0          0          5000      
N0538           36.3       8.9        0          0          5000      
N0539           11.49      8.2        0          0          5000      
N0540           6.15       9.3        0          0          5000      
N0541           0.07       11.7       0          0          5000      
N0542           21.84      8.1        0          0          5000      
N0543           29.17      9          0          0          5000      
N0544            9.64       10.8       0          0          5000      
N0545            -3.55      9.85       0          0          5000      
N0546            -1.21      7.5        0          0          5000      
N0547            -0.53      10.5       0          0          5000      
N0548            -0.34      9.5        0          0          5000      
N0549            -6.08      12         0          0          5000      
N0550            -6.01      11.8       0          0          5000      
N0551           69.63      16.81      0          0          5000      
N0552           81.37      10         0          0          5000      
N0553           22.25      6.5        0          0          5000      
N0554           22.24      6.2        0          0          5000      
N0555           12.33      9.8        0          0          5000      
N0556           23.75      6.5        0          0          5000      
N0557           85.11      7.5        0          0          5000      
N0558           9.5        9.55       0          0          5000      
N0559            -4.84      12.64      0          0          5000      
N0560            -3.2       17.2       0          200        0         
N0561            67.9       7.9        0          0          5000      
N0562            -3.3       17.5       0          0          5000      
N0563            -1.99      13         0          0          5000      
N0564            -7         18.5       0          0          5000      
N0565            -7.3       19         0          0          5000      
N0566            -1.44      10.49      0          0          5000      
N0567            0.1        9          0          200        0         
N0568            -9         18         0          0          0         
N0569          79.9       12.8       0          0          5000      
N0570          80.9       11.7       0          0          0         
N0571          81.35      11.35      0          0          0         
N0572          81.73      11.47      0          0          5000      
N0573          83.12      11.3       0          0          5000      
N0574          85.03      10.87      0          0          0         
N0575          85.89      13.81      0          0          5000      
N0576          89.23      15.17      0          0          0         
N0577            0.2        8.6        0          0          5000      
N0578            0.19       8.6        0          0          5000      
N0579             64.59      19         0          0          5000      
N0580             64.5       18         0          0          0         
N0581             65.47      14         0          0          0         
N0582             66         13         0          0          5000      
N0583              58.6       14.4       0          0          5000      
N0584              57.86      14.1       0          0          0         
N0585              56.65      14.2       0          0          0         
N0586           35.45      9.1        0          0          5000      
N0587              56         14.3       0          0          0         
N0588              60.97      10         0          0          5000      
N0589              62.11      13         0          0          5000      
N0590              62.5       12         0          0          5000      
N0591              63.04      12         0          0          5000      
N0592           17.11      11.09      0          0          5000      
N0593           -5.36      11.75      0          0          5000      
N0594           -6.8       7.19       0          0          5000      
N0595           -8.9       7.19       0          0          5000      
N0596           -1.7       6.25       0          0          5000      
N0597           0          5.91       0          0          5000      
N0598            68.44      0          0          200        0         
S0318          53         0          0          200        0         
S0319          104.9      0          0          200        0         
N0599           74.65      9          0          0          5000      
N0600          -7.75      0          0          200        0         
N0601            -6         11.79      0          0          5000      
N0602            -6.09      12.2       0          0          5000      
N0603            -7.12      12.2       0          0          5000      
N0604           -7.15      13.2       0          0          5000      
N0605           -8.9       20         0          0          5000      
N0606       -9         20         0          0          5000      
N0607           -8.4       22.2       0          0          5000      
N0608            71         8          0          0          5000      
N0609            -0.1       8          0          0          5000      
N0610            19.13      13.62      0          0          5000      

[OUTFALLS]
N0611       -5.36      TIMESERIES TS0001       NO                       
N0612          93.67      FREE                        NO                       
N0613        -4.81      TIMESERIES TS0001       YES                      
N0614      0          NORMAL                      NO                       
N0615        -2.55      TIMESERIES TS0001       NO                       
N0616          -9.8       FREE                        NO                       
N0617          -2.69      TIMESERIES TS0001       YES                      
N0618          -4.64      TIMESERIES TS0001       NO                       
N0619          -4.15      TIMESERIES TS0001       YES                      
N0620          -3.72      TIMESERIES TS0001       NO                       
N0621          -0.2       TIMESERIES TS0001       NO                       
N0622          -0.92      TIMESERIES TS0001       NO                       
N0623          -1.86      TIMESERIES TS0001       YES                      
N0624          -0.14      TIMESERIES TS0001       YES                      
N0625          -4.99      TIMESERIES TS0001       YES                      
N0626          -2.77      TIMESERIES TS0001       YES                      
N0627          -6.57      TIMESERIES TS0001       NO                       
N0628          -3.35      TIMESERIES TS0001       YES                      
N0629          -4.7       TIMESERIES TS0001       NO                       
N0630         -5         TIMESERIES TS0001       YES                      
N0631        -5.59      TIMESERIES TS0001       YES                      
N0632          -0.67      TIMESERIES TS0001       YES                      
N0633         -0.3       TIMESERIES TS0001       YES                      
N0634         -0.31      TIMESERIES TS0001       YES                      
N0635         -10.25     TIMESERIES TS0001       YES                      
N0636         -10.25     TIMESERIES TS0001       YES                      
N0637          -7.57      TIMESERIES TS0001       YES                      
N0638          -1.38      TIMESERIES TS0001       YES                      
N0639          -8.33      TIMESERIES TS0001       YES                      
N0640          -7.33      TIMESERIES TS0001       YES                      
N0641          -11.55     TIMESERIES TS0001       YES                      
N0642          -3.6       TIMESERIES TS0001       YES                      
N0643          -5.3       TIMESERIES TS0001       YES                      
N0644        -10.65     TIMESERIES TS0001       YES                      
N0645         -2.68      TIMESERIES TS0001       YES                      
N0646      -9.1       NORMAL                      NO                       

[STORAGE]
N0647      -13      18         0          TABULAR    N0647                  0        0       
N0648      -18.67   28         0          TABULAR    N0648                  0        0       
N0649       -21.5    27         0          TABULAR    C0010                  0        0       
N0650        -18.5    23         0          TABULAR    C0011                   0        0       
N0651         -15.25   21.75      0          FUNCTIONAL 413       0         0        0        0       
N0652        -15.75   10         0          TABULAR    C0012               0        0       
N0653       47.25    17.5       0          FUNCTIONAL 262       0         0        0        0       
N0654     0.35     12.55      0          TABULAR    C0014             0        1       
N0655      4.51     14.03      0          FUNCTIONAL 98.14     0         0        0        0       
N0656       45       13         0          FUNCTIONAL 92        0         0        0        0       
N0657         65.1     11.1       0          FUNCTIONAL 603       0         0        0        0       
N0658       -21      16         0          TABULAR    C0016                  0        0       

[CONDUITS]
N0001            N0001            N0016            696.94     0.015      0          0          0          0         
L0001            N0007             N0607           772.13     0.016      0          0          0          0         
L0002          N0013             N0622          216.44     0.015      0          0          0          0         
L0003            N0010            N0012            264.52     0.015      0          0          0          0         
N0002            N0002            N0007             222.25     0.015      0          0          0          0         
N0003            N0003            N0002            212.62     0.015      0          0          0          0         
N0004            N0004            N0003            57.74      0.015      0          5.9        0          0         
N0005            N0005            N0004            319.81     0.015      0          0          0          0         
L0004            N0012            N0008            296.22     0.015      0          0.6        0          0         
N0006             N0006             N0005            708.28     0.015      0          0          0          0         
N0009            N0009            N0049            203.04     0.02       0          5.87       0          0         
N0011            N0011            N0317           115.03     0.015      0          0          0          0         
N0013             N0008            N0507            126.85     0.015      0          4.8        0          0         
N0014            N0014            N0163           430.19     0.015      0          0          0          0         
1                N0473           N0169            160.74     0.015      0          0          0          0         
N0016            N0016            N0503            218.4      0.015      0          0          0          0         
N0018            N0018            N0017            334.84     0.015      0          0          0          0         
N0019            N0019            6698             17.01      0.015      0          0          0          0         
N0020            N0020            N0028            1152.63    0.015      0          0          0          0         
L0005          N0021            N0025            748.17     0.015      0          0          0          0         
L0006          N0021            N0246           681.31     0.015      4.44       0          0          0         
N0022            N0022            N0494            142.45     0.015      0          4.75       0          0         
N0023            N0023            N0022            13.42      0.015      0          0          0          0         
N0024            N0024            N0022            26.14      0.015      0          0          0          0         
N0025            N0025            N0023            280.47     0.015      0          0          0          0         
N0026            N0026            N0027            876.3      0.015      0          0          0          0         
N0027            N0027            N0509            133.86     0.015      0          4.4        0          0         
N0028            N0028            N0495            108.04     0.015      0          3.84       0          0         
N0030             N0030             N0508            171.69     0.015      0          5.32       0          0         
N0031             N0031             N0619          119.38     0.015      0          0          0          0         
N0032            N0032            6616             280.68     0.022      0          0.77       0          0         
N0033            N0033            N0339            864.41     0.015      0          0.5        0          0         
N0034            N0034            N0035            242.74     0.015      0          0          0          0         
N0035            N0035            N0351           273.86     0.015      0          0          0          0         
N0036            N0036            N0037           611.6      0.015      0          0          0          0         
L0007         N0351           2747             614.06     0.015      0          0          0          0         
N0037           N0037           N0348           239.16     0.015      0          0          0          0         
1604             2604             2543             1396.45    0.016      0          0.05       0          0         
N0038             N0038             6620             22.98      0.015      0          0          0          0         
N0039            N0039            N0040            250.54     0.015      0          0.25       0          0         
N0040            N0040            N0499            304.05     0.015      0          1.69       0          0         
N0041            N0041            N0617          387.75     0.015      0          0          0          0         
N0042            N0042            N0510            24.37      0.015      0          2.9        0          0         
N0043            N0043            N0042            159.33     0.015      0          0          0          0         
N0044            N0044            N0496            58.4       0.015      0          3          0          0         
N0045            N0045            N0046            146        0.015      0          0          0          0         
N0046            N0046            N0282           207.91     0.015      0          0          0          0         
N0047            N0047            N0048            521.41     0.015      0          0.91       0          0         
N0048            N0048            N0053            709.03     0.015      0          0.5        0          0         
N0049            N0049            N0507            266.11     0.015      0          0          0          0         
N0051            N0051            N0313           214.18     0.015      0          0          0          0         
N0052            N0052            6642             366.34     0.015      0          0          0          0         
2                N0549            N0602            10.78      0.015      0          0          0          0         
N0053            N0053            N0281           199.99     0.015      0          4          0          0         
N0054            N0054            N0284           259.85     0.015      0          0          0          0         
2304             2304             2329             263.69     0.015      0          0          0          0         
2315             2315             2329             234.07     0.015      0          0          0          0         
2329             2329             N0128            1135.55    0.015      0          2          0          0         
2340             2340             N0298           404.58     0.015      0          1.9        0          0         
2399             2399             2400             10.7       0.015      0          0          0          0         
2400             2400             N0133            10.23      0.015      1.15       0.2        0          0         
L0008            2400             N0132            28.03      0.015      0          1.14       0          0         
L0009            N0056            N0131          21.835     0.013      1.97       0          0          0         
2402             2402             N0132            34.173     0.015      0          2.8        0          0         
N0055            N0055            2402             229.936    0.013      0          0          0          0         
L0010            N0057            N0286           452.98     0.027      0          0          0          0         
2493             2493             N0170            156.63     0.015      0          0          0          0         
25               N0213           N0214           719.25     0.015      0          0          0          0         
N0058            N0058            N0057            462.14     0.027      0          0          0          0         
2548             2543             N0291       23.77      0.015      0          0          0          0         
2615             2615             2636             31.22      0.015      0          0          0          0         
2616             2616             2637             42.92      0.015      0          0          0          0         
2633             2633             N0059            15.54      0.028      0          0          0          0         
2636             2636             2604             1034.75    0.016      0          0.05       0          0         
2637             2637             N0285           887.3      0.015      0          0          0          0         
N0059            N0059            2636             108.24     0.028      0          0          0          0         
N0060            N0060            N0563            111.14     0.015      0          0          0          0         
2662             2662             6649             901.37     0.015      0          0.16       0          0         
2663             2663             N0288           37.99      0.015      0          0          0          0         
2674             2673             N0068            27.31      0.015      0          1.5        0          0         
2695             2695             2694             115.19     0.015      0          0          0          0         
2701             2701             N0481           267.71     0.015      0          0          0          0         
2716             2716             N0299           215.18     0.015      0          0          0          0         
2719             2719             N0171            788.28     0.015      0          0          0          0         
2747             2747             N0349           250.73     0.015      0          0          0          0         
2750             2750             N0032            321.61     0.015      0          0          0          0         
2754             2754             N0021            71.12      0.015      0          0          0          0         
2867             2867             N0203           44.07      0.015      0          0          0          0         
2875             2875             N0305           130.72     0.015      0          3          0          0         
L0011           2880             2881             50.98      0.015      9          2.8        0          0         
L0012           2880             2882             134.16     0.015      0          0          0          0         
2881             2881             2901             207.57     0.015      0          0          0          0         
2888             2883             N0115            376.6      0.015      0          4.3        0          0         
2901             2901             N0061            163.15     0.015      0          0          0          0         
N0061            N0061            N0635         1285.36    0.015      0          0          0          0         
2913             2913             N0110            215.3      0.015      0          0          0          0         
2927             2927             N0307           319.39     0.015      0          0          0          0         
2936             2936             N0122            767.09     0.015      0          0.69       0          0         
2959             2959             N0547            27.55      0.015      0          1.13       0          0         
2971             2971             N0156           238.32     0.015      0          0          0          0         
2972             2972             6850             209.86     0.015      0          0          0          0         
L0013           N0156           N0345          416.75     0.015      0.5        8          0          0         
3                3474             3                281.17     0.015      0          0          0          0         
3018             3018             N0244           674.19     0.017      0          0          0          0         
L0014          3018             N0561            12.42      0.015      10.2       2.2        0          0         
3027             3027             2716             488.74     0.015      0          0          0          0         
3063             3063             6898             303.67     0.015      0          0          0          0         
3130             3130             6944             241.95     0.015      0          0.5        0          0         
3138             3138             N0298           430.38     0.015      0.75       0          0          0         
3176             3176             4088             687.3      0.015      0          2.24       0          0         
3228             3228             3259             381.07     0.015      0          0          0          0         
3252             3252             3063             1410.56    0.015      0          0          0          0         
3259             3259             N0608            1207.63    0.015      0          0          0          0         
3359             3359             N0216        202.08     0.015      0          0          0          0         
N0064            N0064            N0065            622.68     0.015      0          0          0          0         
3443             3443             N0551           1896.66    0.015      0          0          0          0         
3472             3472             3473             90         0.015      0          0          0          0         
3473             3473             N0640          667.21     0.015      0          0          0          0         
3475             3475             6959             624.91     0.015      0          0.1        0          0         
3476             3476             N0147           164.67     0.015      0          0          0          0         
3486             3486             3476             376.54     0.015      0          0          0          0         
3488             3488             3496             39.7       0.017      0          3          0          0         
3495             3495             3486             248.33     0.015      0          10.95      0          0         
3496             3496             4088             250.39     0.015      0          2.24       0          0         
3499             3499             3475             171.73     0.015      0          2.6        0          0         
3501             3501             3583             319.11     0.015      0          0.5        0          0         
3507             3507             3486             334.82     0.015      0          9.95       0          0         
N0065            N0065            N0278           350.33     0.015      0          0          0          0         
3528             3528             N0641          681.55     0.015      0          0          0          0         
3540             3540             3919             31.41      0.015      0          7          0          0         
L0015           3540             N0491           34.3       0.015      5.45       23.04      0          0         
3543             3543             N0148           142.22     0.015      0          0          0          0         
3557             3557             N0526             379.41     0.015      0          0          0          0         
3562             3562             N0145           53.9       0.015      0          0          0          0         
L0016          N0066            N0526             340.14     0.015      3          0.71       0          0         
L0017           3569             N0375            144.11     0.017      0          0          0          0         
3573             3573             3580             26.15      0.015      0          0          0          0         
3576             3576             3562             269.32     0.015      0.2        5          0          0         
3577             3577             N0376            106.92     0.015      0          0          0          0         
3580             3580             3576             13.52      0.015      0          12.67      0          0         
3583             3583             3568             178.81     0.015      0          1          0          0         
3604             3604             N0458           292.66     0.015      0          0          0          0         
3862             3862             3865             462.44     0.015      0          0          0          0         
3865             3865             N0468           1575.48    0.015      0          0          0          0         
3917             3917             3540             21.24      0.015      0          6.85       0          0         
3918             3918             3540             43.38      0.015      0          0          0          0         
3919             3919             N0484           216.5      0.015      0          0.1        0          0         
3926             3926             N0592           165.9      0.015      0          0.68       0          0         
3928             3928             3920             377.81     0.015      0          0.11       0          0         
N0067            N0067            N0064            981.1      0.015      0.49       0          0          0         
3935             3935             N0148           666.22     0.015      0          0          0          0         
N0068            N0068            N0295           491.09     0.015      0          0.25       0          0         
N0069            N0069            N0070            40.95      0.015      0          0          0          0         
N0070            N0070            N0071            166.03     0.015      0          0          0          0         
3962             3962             3960             9.03       0.015      0          0          0          0         
3969             3969             3962             136.56     0.015      0          0          0          0         
3971             3971             3928             852.94     0.015      0          0.12       0          0         
3992             3992             N0228           33.18      0.015      0          0          0          0         
N0071            N0071            N0604           742.23     0.015      0          0          0          0         
4                3                3475             270.42     0.015      0.75       0          0          0         
N0072            N0072            N0200           10.95      0.016      0          0          0          0         
N0073            N0073            N0079           261.06     0.025      0          0          0          0         
N0074            N0074            N0201           256.3      0.015      0          0          0          0         
N0075            N0075            N0074            21.43      0.015      0          0          0          0         
4027             4027             3862             1114.46    0.015      0          0          0          0         
4029             4029             4027             374.15     0.015      0          0          0          0         
N0076            N0076            N0294            861.17     0.015      0          0          0          0         
N0077            N0077            N0080            746.48     0.025      0          0          0          0         
4032             4032             4029             540.96     0.015      0          0          0          0         
N0078            N0079           N0077            28.99      0.025      0          0          0          0         
L0018           N0078            N0077            100        0.025      0          0          0          0         
4049             4049             N0355           2233.09    0.015      0          0          0          0         
N0080            N0080            N0067            680.47     0.025      0          0          0          0         
4088             4088             3499             194.91     0.015      0          12.35      0          0         
N0081            N0081            N0082            228.33     0.015      0          0          0          0         
N0082            N0082            N0075            211.79     0.015      0          0.4        0          0         
N0083            N0083            N0453           1719.31    0.015      0          0          0          0         
4136             4136             6768             189.55     0.015      0          0          0          0         
4144             4144             N0525           39.63      0.015      0          0          0          0         
4150             4150             4163             390.11     0.015      0          0          0          0         
4151             4151             4163             405.45     0.015      0          3.03       0          0         
4160             4160             4164             224.26     0.015      0          0          0          0         
4161             4161             4163             10.22      0.015      0          0          0          0         
4163             4163             4219             454.65     0.015      0          0          0          0         
4164             4164             N0596           99.47      0.015      0          0          0          0         
4172             N0084            6753             1121.06    0.015      0          0          0          0         
4175             4175             4176             200.72     0.015      0          0.46       0          0         
4176             4176             4151             58.47      0.015      0          0          0          0         
4191             4191             4246             110.77     0.017      0          0          0          0         
4195             4195             4247             73.28      0.017      0          0          0          0         
4198             4198             N0243           331.22     0.017      0          0          0          0         
4201             4201             N0241           688.19     0.02       0          0          0          0         
4208             4208             4191             433.74     0.017      0          5.4        0          0         
4219             4219             4191             392.29     0.017      0          0          0          0         
4246             4247             N0400          55.84      0.017      0          0          0          0         
L0019           4246             N0648      73.26      0.017      0          9.11       0          0         
4247             N0400          N0613        1219.78    0.015      0          0          0          0         
4251             4251             4246             192.48     0.017      0          0.42       0          0         
4516             4516             4517             20.85      0.015      0          0          0          0         
N0085           N0085           N0529           289.9      0.015      0          3.05       0          0         
4517             4517             4527             165.47     0.015      0          2.42       0          0         
4523             4523             4524             42.91      0.015      0          0          0          0         
4524             4524             N0529           68.68      0.015      0          0          0          0         
4525             4525             4527             40.08      0.015      0          0.25       0          0         
4527             4527             N0485           549.13     0.015      0          2.11       0          0         
4533             4533             N0610            308.14     0.015      0          2.97       0          0         
4543             4543             4523             1317.25    0.015      0          0          0          0         
4546             4546             4558             132.64     0.015      0          0          0          0         
4551             4551             4556             62.04      0.015      0          0.21       0          0         
4555             4555             4556             7.87       0.015      0          0          0          0         
4556             4556             4569             283.21     0.015      0          0.07       0          0         
4557             4557             N0609            274.21     0.015      0          0          0          0         
4558             4558             4555             7.1        0.015      0          1.64       0          0         
4560             4560             N0537           81.08      0.017      2.5        0          0          0         
4562             4562             4560             41.62      0.017      0          0          0          0         
4567             4567             4569             287        0.015      0          0          0          0         
4568             4568             4567             14.07      0.015      0          0          0          0         
4569             4569             4574             214.93     0.015      0          0          0          0         
4574             4574             N0396            521.53     0.017      0          0          0          0         
4581             4581             4594             217.16     0.015      0          0          0          0         
4582             4582             4555             244.4      0.015      0          0          0          0         
4583             4583             N0183           230.89     0.015      0          0          0          0         
4594             4594             4582             81.62      0.015      0          0          0          0         
4600             4600             N0333           378.14     0.015      0          1.97       0          0         
L0020           N0586           N0238           553.22     0.015      0          0          0          0         
L0021           4614             N0483            37.98      0.015      0          0.95       0          0         
N0086            N0086            N0087            322.02     0.015      0          1.5        0          0         
4617             4617             4525             532.65     0.015      0          0.05       0          0         
4625             4625             4617             983.18     0.015      0          0.04       0          0         
N0087            N0087            N0088            370.09     0.015      0          1.5        0          0         
N0088            N0088            N0230            1067.72    0.015      0          0          0          0         
N0089            N0089            N0092             1100.21    0.015      0          0          0          0         
4631             4632             4543             63.68      0.015      0          0          0          0         
4633             4633             N0490           20.57      0.015      0          0          0          0         
4642             4642             4693             861.43     0.015      0          8.6        0          0         
4693             4693             4696             457.6      0.015      0          0          0          0         
4696             4696             N0487           480.95     0.035      0          0          0          0         
4698             4698             4600             318.73     0.015      0          0          0          0         
N0090            N0090            N0091            298.32     0.03       0          0          0          0         
N0091            N0091            N0095             212.91     0.03       0          0          0          0         
4723             4723             N0513            1158.07    0.015      0          0          0          0         
4725             4725             4723             20.78      0.015      0          0          0          0         
4727             4727             4725             1012.45    0.015      0          0.78       0          0         
4744             4744             4746             72.48      0.015      0          0.09       0          0         
4746             4746             N0513            69.69      0.015      0          2.19       0          0         
N0092             N0092             N0093             345.55     0.015      0          0.31       0          0         
N0093             N0093             N0090            312.38     0.03       0          0          0          0         
4782             4782             4696             1275.17    0.015      0          1.03       0          0         
4801             N0096            N0309           891.69     0.015      0          0          0          0         
L0022           4808             N0188           905.36     0.015      0          0          0          0         
4828             4828             N0565            8.13       0.017      0          0          0          0         
L0023           4828             N0189           41.51      0.03       0          0          0          0         
4829             4829             N0564            33.88      0.022      0          0          0          0         
4837             N0094            N0192           964.51     0.015      0          0          0          0         
4845             4845             N0512            409.91     0.015      0          0          0          0         
N0095             N0095             6734             546.43     0.015      0          0          0          0         
4939             4939             N0181           446.95     0.015      0          0          0          0         
4970             4970             4939             1198.86    0.015      0          1          0          0         
5                5                6803             3.27       0.017      0          0          0          0         
5068             5068             5092             781.13     0.015      0          0          0          0         
5070             5070             5091             883.39     0.015      0          0          0          0         
5079             5079             5070             203.36     0.015      0          0          0          0         
5091             5091             N0325           644.05     0.015      0          0          0          0         
5092             5092             5093             511.39     0.015      0          0.46       0          0         
5093             5093             5095             42.52      0.015      0          0          0          0         
5095             5095             N0193           163.45     0.015      0          0          0          0         
5097             5097             N0182           198.24     0.015      0          0          0          0         
5104             5104             5105             732.48     0.019      0          0          0          0         
5105             5105             N0651         64.72      0.019      0          8.74       0          0         
5106             5106             5104             541.1      0.019      0          0.5        0          0         
5122             5122             N0182           1052.35    0.015      0          0          0          0         
5123             5123             5091             286.11     0.015      0          0          0          0         
5126             5126             5106             597.69     0.015      0          0.25       0          0         
N0097            N0097            N0068            680.85     0.015      0          0          0          0         
L0024            N0098            N0566            13.49      0.015      0          0.6        0          0         
N0099            N0099            N0100            218.32     0.015      0          0          0          0         
5152             5152             5092             290.33     0.015      0          0.18       0          0         
N0100            N0100            N0101            214.09     0.015      0          0          0          0         
N0101            N0101            N0071            302.59     0.015      0          2.43       0          0         
N0102             N0102             N0116            54.2       0.017      0          0          0          0         
N0103            N0103            N0644        96.67      0.015      0          0          0          0         
N0104             N0104             N0102             257.74     0.017      0          7.53       0          0         
5279             5279             5290             81.84      0.015      0          0.17       0          0         
5290             5290             N0516             4369.56    0.015      0          0.1        0          0         
N0105            N0105            N0099            237.36     0.015      0          0          0          0         
N0106            N0106            N0107            30.47      0.015      0          1.5        0          0         
5426             5426             5431             258.5      0.015      0          2.93       0          0         
N0107            N0107            N0566            426.23     0.015      0          0          0          0         
5427             5427             5426             12.76      0.015      2          0          0          0         
N0108            N0108            N0302           209.05     0.015      0          0          0          0         
L0025           5427             5430             279.14     0.015      0          2.01       0          0         
5430             5430             5435             337.64     0.015      0          0          0          0         
N0109            N0109            N0108            241.99     0.015      0          0          0          0         
5431             5431             N0391           533.07     0.015      0          0          0          0         
N0110            N0110            N0111            16.21      0.015      0          0          0          0         
5432             5432             5434             96.12      0.03       0          0          0          0         
N0111            N0111            N0546            17.2       0.015      0          0.5        0          0         
N0112            N0112            N0106            228.46     0.015      0          0          0          0         
5434             5434             N0113            111.32     0.03       0          1.42       0          0         
5435             5435             5438             316.56     0.015      0          0          0          0         
5437             5437             5435             297.5      0.015      0          0          0          0         
5438             5438             5126             938.52     0.015      0          0          0          0         
N0114            N0114            2875             125.54     0.015      4.91       0          0          0         
N0115            N0115            N0297           30.19      0.015      0          0.25       0          0         
5450             5450             5122             906.95     0.015      0          0          0          0         
5451             5451             5450             606.39     0.015      0          0          0          0         
5474             5474             N0253           215.3      0.015      0          0.87       0          0         
5475             5475             N0191           18.31      0.015      0          0          0          0         
N0116            N0116            N0369           174.95     0.017      6.7        0          0          0         
N0118            N0118            N0078            1859.84    0.025      0          0.6        0          0         
L0026            N0119             2695             18.2       0.015      1.85       0          0          0         
L0027            N0119             N0118            272.04     0.025      0          0          0          0         
L0028            N0117            N0255           934.53     0.015      0          0          0          0         
N0120             N0120             N0095             517.08     0.015      0          0          0          0         
5695             N0155           N0143          632.46     0.015      0          0          0          0         
N0121            N0121            N0086            254.75     0.015      0          0.63       0          0         
N0122            N0122            N0087            932.79     0.015      0          2.93       0          0         
6594             6594             6609             984.52     0.015      0          0.5        0          0         
6609             6609             N0033            542.83     0.015      0          0.05       0          0         
6615             6615             6609             56.59      0.015      0          1.9        0          0         
6617             6617             N0625          140.83     0.015      0          0          0          0         
6620             6620             6624             254.99     0.015      0          0          0          0         
6622             6622             N0339            15.02      0.015      0          6.37       0          0         
6623             6623             N0039            21.17      0.015      0          0          0          0         
6626             6626             6633             54.32      0.015      0          4.96       0          0         
6628             6628             6666             69.22      0.015      0          0          0          0         
6633             6633             6634             198.63     0.015      0          0.05       0          0         
6635             6635             N0341          55.68      0.015      0          0          0          0         
6643             6643             6649             47.18      0.015      0          0.42       0          0         
6644             6644             6646             43.42      0.015      0          0          0          0         
6645             6645             6643             6.93       0.015      0          0          0          0         
6646             6646             N0500            324.87     0.015      0          0          0          0         
6649             6649             6635             287.97     0.015      0          0          0          0         
6650             6650             N0289           37         0.015      0          0          0          0         
6651             6651             6650             4.52       0.015      0          0          0          0         
6662             6662             N0562            580.78     0.015      0          5          0          0         
6666             6666             N0499            363.54     0.015      0          1          0          0         
6694             6694             N0015            92.01      0.015      0          0          0          0         
6696             6696             N0016            15.13      0.015      0          0          0          0         
6697             6697             6594             901.72     0.015      0          0.3        0          0         
6698             6698             N0624          168.91     0.015      0          0          0          0         
6705             6705             6616             99.19      0.015      0.2        0          0          0         
6708             6708             N0249           246.84     0.015      0          0          0          0         
6709             N0029           N0618          116.23     0.03       0          0          0          0         
6720             6720             2633             252.45     0.028      0          0          0          0         
L0029          6720             6722             16.67      0.015      4.7        0          0          0         
6721             6721             6722             55.97      0.015      0          0          0          0         
6722             6722             N0615        166.03     0.015      0          0          0          0         
6723             6723             6721             263.84     0.015      0          0          0          0         
6724             6724             N0057            24.07      0.015      0          3.9        0          0         
6725             6725             6724             450.45     0.015      0          0          0          0         
6734             6734             N0231           52.89      0.015      0          0          0          0         
N0123            N0123            N0636         1635.7     0.015      0          0          0          0         
6753             6753             N0594           373.23     0.015      0          0          0          0         
6760             6760             N0327           92.4       0.015      0          0          0          0         
6762             6762             N0593           188.58     0.015      0          2.1        0          0         
N0124           N0124           6760             174.82     0.015      0          0          0          0         
6767             6767             2170             57.81      0.015      0          0          0          0         
6768             6768             6767             19.65      0.015      0          0          0          0         
6780             6780             N0157           898.03     0.015      0          0          0          0         
6802             6802             N0387            24.14      0.015      0          2.02       0          0         
6803             6803             N0359           338.41     0.017      0          0          0          0         
L0030           N0387            6804             415.08     0.015      2.02       0          0          0         
6804             6804             N0178            24.04      0.015      0          0          0          0         
6840             6840             2959             61.43      0.015      0          0          0          0         
6850             6850             6874             243.57     0.015      0          8          0          0         
6857             6857             6858             55.82      0.015      0          6.7        0          0         
6858             6858             N0548            560.46     0.015      0          0          0          0         
6871             6871             N0378            289.02     0.015      0          1.83       0          0         
6874             6874             N0379            149.57     0.015      0          0          0          0         
6898             6898             3018             831.41     0.017      0          0          0          0         
6944             6944             3507             339.55     0.015      0          0.5        0          0         
6958             6958             3138             648.52     0.015      0          0          0          0         
6959             6959             6958             195.35     0.015      0          0.75       0          0         
N0125           N0125           N0127           78.4       0.015      0          0          0          0         
N0126           N0126           N0347          255.15     0.015      0          0          0          0         
N0127           N0127           N0373            281.74     0.015      0          0          0          0         
N0128            N0128            N0372            543.65     0.015      0          0          0          0         
N0129            N0129            N0126           435.4      0.015      0          0          0          0         
N0131          N0130            N0131          200.101    0.015      0          0          0          0         
L0031          N0131          N0133            40.104     0.015      0          0          0          0         
N0132            N0132            N0126           588.88     0.015      0          7.2        0          0         
N0133            N0133            N0125           549.89     0.015      0          0          0          0         
N0134            N0134            N0405            489.34     0.015      0          0          0          0         
N0135            N0135            N0134            112.96     0.015      0          0          0          0         
N0136            N0136            N0135            199.17     0.015      0          0          0          0         
N0137            N0137            N0136            205.1      0.015      0          0          0          0         
N0138            N0138            N0137            197.1      0.015      0          0          0          0         
N0139            N0139            N0138            184.06     0.015      0          0          0          0         
N0140            N0140            N0139            224.38     0.015      0          0          0          0         
N0141            N0141            N0140            239.43     0.015      0          0          0          0         
N0142           N0142           3474             246.59     0.015      0          0.75       0          0         
N0143          N0143          N0329            210.49     0.015      0          0          0          0         
N0144          N0144          5451             311.18     0.015      0          0          0          0         
N0145           N0145           N0142           153.86     0.015      0          0          0          0         
N0146           N0146           N0559            16.57      0.015      0          3.06       0          0         
N0147           N0147           N0559            168.06     0.015      0          0          0          0         
N0148           N0148           3557             378.72     0.015      0          0          0          0         
N0149           N0149           3935             14.29      0.015      0          0          0          0         
N0150           N0150           3473             276.34     0.015      0          0          0          0         
L0032         N0150           3472             243.62     0.015      0          0          0          0         
N0151           N0151           5434             339.13     0.015      0          0          0          0         
N0152           N0152           N0154           189.53     0.015      0          1.42       0          0         
N0153           N0153           5475             359.7      0.015      0          3          0          0         
N0155           5695             N0144          637.14     0.015      0          0          0          0         
N0157           N0157           N0326           58.9       0.015      0          0          0          0         
L0033          N0389          N0161         416.97     0.015      0          0          0          0         
N0162           N0162           N0009            392.4      0.015      0          0          0          0         
N0163           N0163           N0164           438.02     0.015      0          0          0          0         
N0164           N0164           N0165           95.16      0.015      0          0.05       0          0         
N0166           N0166           6697             18.05      0.015      0          0          0          0         
N0167            N0167            N0389          205.11     0.015      0          0          0          0         
N0168            N0168            N0167            189.15     0.015      0          0          0          0         
N0169            N0169            N0168            592.22     0.015      0          0          0          0         
N0170            N0170            N0172            588.97     0.015      0          0          0          0         
N0171            N0171            2867             266.28     0.015      0          0          0          0         
N0172            N0172            N0235           345.95     0.015      0          0          0          0         
N0173            N0173            2719             10.71      0.015      0          0          0          0         
N0174            N0174            N0202           415.76     0.015      0          0          0          0         
N0175            N0175            N0174            396.25     0.015      0          0          0          0         
N0176            N0176            N0175            338.97     0.015      0          0          0          0         
N0177            N0177            N0176            15.31      0.015      0          0          0          0         
N0178            N0178            N0177            380.85     0.015      0          0          0          0         
N0179            N0179            N0173            337.91     0.015      0          0          0          0         
N0180           N0180           4828             366.18     0.015      0          0          0          0         
N0181           N0181           N0180           458.58     0.015      0          0          0          0         
N0182           N0182           4970             974.22     0.015      0          0          0          0         
N0183           N0183           4558             22.49      0.015      0          0          0          0         
N0184           N0184           4583             233.74     0.015      0          0.5        0          0         
N0185           N0185           N0184           465.44     0.015      0          0          0          0         
N0186           N0186           N0185           51.98      0.015      0          0.5        0          0         
N0187           N0187           4557             19.16      0.015      0          0.5        0          0         
N0188           N0188           4829             2017.54    0.015      0          0          0          0         
N0190           N0190           N0192           195.11     0.015      0          0          0          0         
N0191           N0191           5430             286.08     0.015      0          0          0          0         
L0034         N0191           5430             303.02     0.015      3          0          0          0         
N0192           N0192           N0643          195.76     0.015      0          0          0          0         
N0193           N0193           5097             39.07      0.015      0          0          0          0         
N0194           N0194           4557             257.96     0.015      0          0.5        0          0         
N0195       N0195       N0304           5053.34    0.015      0          0.02       0          0         
N0196           N0196           N0119             334.1      0.015      0          0          0          0         
N0197           N0197           2604             26.71      0.03       0          2          0          0         
N0198           N0198           N0199           37.72      0.015      0          0          0          0         
N0199           N0199           N0284           240.94     0.015      0          0          0          0         
N0200           N0200           N0073            12.73      0.025      1.22       0          0          0         
N0201           N0201           N0197           1579.76    0.015      0          0          0          0         
N0202           N0202           N0330           755.62     0.015      0          1.43       0          0         
N0203           N0203           N0234           1055.73    0.015      0          0          0          0         
N0204            N0204            N0205            89.15      0.015      0          0          0          0         
N0205            N0205            N0206            329.77     0.015      0          0          0          0         
N0206            N0206            N0207            566.69     0.015      0          0          0          0         
N0207            N0207            N0208            217.5      0.015      0          0          0          0         
N0208            N0208            N0209            346.11     0.015      0          0          0          0         
N0209            N0209            N0210            162.56     0.015      0          0          0          0         
N0210            N0210            N0211            400.13     0.015      0          0          0          0         
N0211            N0211            N0212            338.16     0.015      0          0          0          0         
N0212            N0212            N0409             355.06     0.015      0          0          0          0         
N0213           N0214           N0344           803.63     0.015      0          9.15       0          0         
L0035        N0215            N0308           57.77      0.015      0          0          0          0         
N0217             N0217             3027             1176.82    0.015      0          0          0          0         
N0218            N0218            N0219            148.31     0.015      0          0          0          0         
N0219            N0219            N0612          52.38      0.015      0          0          0          0         
L0036               N0356           N0357           35.49      0.015      0          0          0          0         
L0037               N0356           N0358           36.91      0.015      0          0          0          0         
N0220           N0220           N0620          261.27     0.015      0          0          0          0         
N0221            N0221            N0381            65.34      0.015      0          0          0          0         
N0222            N0222            N0221            230.37     0.015      3.83       0          0          0         
N0223            N0223            N0222            21.86      0.015      0          0          0          0         
N0224            N0224            N0548            22.93      0.015      0          0.6        0          0         
N0225            N0225            N0224            173.15     0.015      0          0          0          0         
N0226            N0226            N0505            142.23     0.015      0          2.89       0          0         
N0227            N0227            N0430           264.91     0.015      0          0          0          0         
L0038        N0368          N0448           267.13     0.017      0          0          0          0         
L0039        N0161         N0159          186.19     0.015      0          0          0          0         
L0040        N0158         N0160    179.65     0.015      0          0          0          0         
L0041             N0550            N0549            77.35      0.015      0          0          0          0         
L0042           6634             6635             155.5      0.015      0          0          0          0         
L0043           N0332          N0333           176.37     0.023      0          0          0          0         
L0044           N0369           2880             213.52     0.017      0          0          0          0         
L0045           3920             3919             588.36     0.015      0          0.11       0          0         
L0046           2170             4172             172.1      0.015      0          0          0          0         
L0047           6719             6720             17.05      0.028      0          0          0          0         
L0048           2966             N0117            558.07     0.015      0          0          0          0         
L0049           2694             2966             163.69     0.015      0.2        0          0          0         
L0050           N0523             N0522             1610.88    0.015      0          0          0          0         
L0051           S0319          N0523             4586.71    0.015      0          0          0          0         
L0052           N0467           3228             744.53     0.015      0          0          0          0         
L0053           N0216        N0217             1336.06    0.015      0          0          0          0         
L0054           N0154           5431             206.12     0.015      0          1.5        0          0         
L0055           N0113            5450             198.49     0.03       0          0.4        0          0         
L0056         N0451          N0254           172.91     0.015      0          0          0          0         
L0057         N0450          N0451          5.84       0.015      0          0          0          0         
L0058         N0449     N0450          599.18     0.015      0          0          0          0         
L0059         N0371    N0449     259.56     0.015      0          0          0          0         
L0060         N0160    N0371    205.03     0.015      0          1.57       0          0         
L0061          N0228           3604             1223.97    0.015      0          0          0          0         
N0229          N0229          N0259           1291.23    0.015      0          0          0          0         
N0230            N0230            N0330           2994.45    0.015      0          0          0          0         
N0231           N0231           N0354           268.72     0.015      0          0          0          0         
N0232           N0232           N0233           15.84      0.015      0          0          0          0         
N0233           N0233           N0072            771.12     0.015      0          0          0          0         
N0234           N0234           N0196           257.63     0.015      0          0          0          0         
N0235           N0235           N0179            61.08      0.015      0          0          0          0         
N0236           N0236           N0561            761.28     0.017      0          0          0          0         
N0237           N0237           N0232           572.58     0.015      0          0.48       0          0         
N0238           N0238           4524             20.13      0.015      0          0          0          0         
N0239           N0239           4614             293.42     0.015      0          0          0          0         
N0240           N0240           N0599           53.5       0.015      0          0          0          0         
N0241           N0241           N0267           294.78     0.02       0          0          0          0         
N0242           N0242           N0645         706.79     0.015      0          0          0          0         
N0243           N0243           4201             31.84      0.017      0          0          0          0         
N0244           N0244           N0257           225.61     0.017      0          0          0          0         
N0245           N0245           N0515            318.26     0.015      0          0          0          0         
N0246           N0246           N0024            338.66     0.015      0          0          0          0         
N0247           N0247           N0621          294.47     0.015      0          0          0          0         
N0248           N0248           N0318           51.2       0.015      0          0          0          0         
N0249           N0249           N0248           50.32      0.015      0          0          0          0         
N0250           N0250           3568             297.11     0.015      0          3          0          0         
N0251           N0251           5431             34.63      0.015      0          0          0          0         
N0252           N0252           N0251           194.05     0.015      0          0          0          0         
N0253           N0253           N0252           142.78     0.015      0          0          0          0         
N0254           N0254           N0253           91.58      0.015      0          0          0          0         
N0255           N0255           N0256           12.81      0.015      0          0          0          0         
N0256           N0256           N0108            15.95      0.015      0          0          0          0         
N0257           N0257           4                229.84     0.017      0          0          0          0         
N0258           N0258           6802             267.74     0.015      0          0.43       0          0         
N0259           N0259           N0457           210.55     0.015      0          0.5        0          0         
N0260           N0260           N0096            1370.53    0.015      0          0          0          0         
N0261           N0261           N0260           1311.68    0.015      0          0          0          0         
N0262          N0262          N0324           3484.43    0.015      0          0          0          0         
N0263           N0263           N0629          568.15     0.015      0          0          0          0         
N0264           N0264           4727             652.95     0.015      0          2.2        0          0         
N0265           N0265           N0264           427.31     0.015      0          0          0          0         
N0266           N0266           N0642          702.26     0.017      0          0          0          0         
N0267           N0267           4246             78.35      0.02       0          9.18       0          0         
N0268           N0268           4251             876.24     0.017      0          0.42       0          0         
N0269           N0269           N0270           299.76     0.017      0          0          0          0         
N0270           N0270           N0266           268.47     0.017      0          0          0          0         
N0271          N0271          N0272          471.06     0.035      0          0          0          0         
N0272          N0272          N0273          456.17     0.035      0          0          0          0         
N0273          N0273          N0274          655.72     0.015      0          0          0          0         
N0274          N0274          N0275          336.94     0.015      0          0          0          0         
N0275          N0275          N0276          28.44      0.015      0          0          0          0         
N0276          N0276          N0277          558.81     0.015      0          0          0          0         
N0277          N0277          N0614      144.06     0.015      0          0          0          0         
N0278           N0278           N0560            756.48     0.015      0          0          0          0         
N0279         N0279         N0280         272.91     0.015      0          0          0          0         
N0280         N0280         N0511           472.74     0.015      0          0          0          0         
N0281           N0281           N0054            1323.86    0.015      1          0          0          0         
N0282           N0282           N0047            291.98     0.015      0          0.5        0          0         
N0283           N0283           N0282           317.44     0.015      0          0.5        0          0         
N0285           N0285           N0284           70.05      0.015      0          0          0          0         
N0286           N0286           6719             240        0.028      0          0          0          0         
N0287           N0287           6723             212.41     0.015      0          0          0          0         
N0288           N0288           N0628          64.1       0.015      0          0          0          0         
N0289           N0289           N0279         1651.65    0.015      0          0          0          0         
N0290           N0290           2665             41.53      0.015      0.67       0          0          0         
L0062           N0290           N0289           10.84      0.015      0          4          0          0         
N0292       N0292       N0560            881.44     0.015      0          8          0          0         
N0293          N0293          N0304           47.74      0.015      0          0          0          0         
N0294            N0294            N0054            1241.28    0.015      0          3.8        0          0         
N0295           N0295           N0067            70.95      0.015      0          0.25       0          0         
N0296           N0296           N0546            249.53     0.015      0          0          0          0         
N0297           N0297           N0296           31.11      0.015      0          0.25       0          0         
N0298           N0298           N0129            142.98     0.015      0          0          0          0         
N0299           N0299           N0300           2244.46    0.015      0          0          0          0         
N0300           N0300           N0089            299.74     0.015      0          0          0          0         
L0063           N0354           N0301           881.64     0.015      0          0          0          0         
N0301           N0301           N0232           272.02     0.015      0          0          0          0         
N0302           N0302           N0123            188.04     0.015      0          0          0          0         
N0303           N0303           N0145           2076.76    0.015      0          2.46       0          0         
N0304           N0304           N0303           2491.3     0.015      0          0          0          0         
N0305           N0305           N0123            414.93     0.015      0          0          0          0         
L0064       N0306           N0527           303.8      0.017      0          2.46       0          0         
N0307           N0307           N0120             74.86      0.015      0          0.95       0          0         
N0308           N0308           N0310           418.24     0.015      0          0          0          0         
N0309           N0309           N0213           41.4       0.015      0          0          0          0         
N0310           N0310           N0311           795.29     0.023      0          0          0          0         
N0311           N0311           N0331           17.56      0.023      0          0          0          0         
N0312           N0312           4583             115        0.015      0          0.24       0          0         
N0313           N0313           N0052            143.62     0.015      0          0          0          0         
N0314           N0314           N0038             398.82     0.015      0          0          0          0         
N0315           N0315           N0290           1056.25    0.015      0          0          0          0         
N0316           N0316           6624             29.43      0.015      0          0          0          0         
N0317           N0317           N0162           59.41      0.015      0          0          0          0         
N0318           N0318           N0030             269.63     0.015      0          0          0          0         
N0319           N0319           N0430           77.78      0.015      0          0          0          0         
N0320           N0320           6709             47.86      0.015      0          0          0          0         
N0321           N0321           6627             849.34     0.015      0          0          0          0         
N0322           N0322           4698             382.61     0.015      0          0          0          0         
N0323           N0323           N0322           691.11     0.015      0          0          0          0         
N0324           N0324           N0323           734.02     0.015      0          0          0          0         
N0325           N0325           N0577            592.79     0.015      0          0          0          0         
N0326           N0326           6760             71.34      0.015      0          0          0          0         
N0327           N0327           N0328           70.74      0.015      0          0          0          0         
N0328           N0328           N0149           370.17     0.015      0          0          0          0         
N0329            N0329            N0153           55.08      0.015      0          0          0          0         
N0330           N0330           N0353           523.7      0.015      0          0          0          0         
L0065            N0050             N0044            562.68     0.015      0          0          0          0         
N0331           N0331           N0332          168.69     0.023      0          0          0          0         
N0333           N0333           N0490           160.68     0.015      0          0          0          0         
N0334            N0334            N0338            239.7      0.015      0          0          0          0         
N0335            N0335            N0386            219.29     0.015      0          0          0          0         
N0336            N0336            N0335            279.77     0.015      0          1.87       0          0         
N0337            N0337            N0336            274.88     0.015      0          0          0          0         
N0338            N0338            N0337            287.77     0.015      0          3.67       0          0         
N0339            N0339            6633             917.6      0.015      0          0.05       0          0         
N0340            N0340            N0623          135.87     0.015      0          0          0          0         
N0342        N0342        6662             1768.9     0.015      0          0.34       0          0         
L0066              N0343           N0334            796.96     0.015      7.47       0          0          0         
L0067         N0344           N0343           54         0.015      0          0.04       0          0         
N0345          N0345          6858             329.1      0.015      0          0          0          0         
N0346          N0346          N0345          459.02     0.015      0          0          0          0         
N0347          N0347          N0346          279.43     0.015      0          0          0          0         
L0068     N0388           3920             248.86     0.015      8.287      14.326     0          0         
L0069            N0524             S0319          4702.28    0.015      0          0          0          0         
L0070      N0370           N0210            1329.64    0.015      0          0          0          0         
L0071           N0350           N0626          111.61     0.015      0          0          0          0         
L0072         N0348           N0352           110.49     0.015      1.8        0          0          0         
L0073         N0348           N0032            491.55     0.022      0          0.77       0          0         
N0349           N0349           N0350           99.53      0.015      0          0          0          0         
N0352           N0352           N0350           12.8       0.015      0          2.48       0          0         
N0353           N0353           2695             203.14     0.015      0          0          0          0         
N0355           N0355           3443             887.94     0.015      0          1.6        0          0         
N0357           N0358           N0630         542.61     0.015      0          0          0          0         
L0074        N0386            N0356           518.16     0.015      0          0          0          0         
L0075          N0357           N0631        541.33     0.015      0          0          0          0         
N0359           N0359           N0455           355.33     0.015      0          0          0          0         
N0360           N0360           N0363           206.54     0.015      0          0          0          0         
N0361           N0361           N0360           34.93      0.015      0          0          0          0         
L0076           N0362           3507             318.83     0.015      0          0          0          0         
N0363           N0363           3496             291.79     0.015      0          0          0          0         
N0364            N0364            N0114            16.23      0.015      0          0          0          0         
N0365            N0365            N0115            35.31      0.015      0          0.6        0          0         
N0366            N0366            N0365            198.93     0.015      0          0          0          0         
N0367          N0367          N0567            37.72      0.015      0          0          0          0         
L0077      N0159          N0368          211.62     0.015      0          2.1        0          0         
N0372            N0372            N0639          101.87     0.015      0          0          0          0         
N0373            N0373            N0374            25.42      0.015      0          0          0          0         
N0374            N0374            N0372            305.13     0.015      0          2          0          0         
N0375            N0375            N0142           155.46     0.017      0          2.8        0          0         
N0376            N0376            3557             174.7      0.015      0          2.9        0          0         
N0377            N0377            3576             50.12      0.015      0          8.96       0          0         
N0378            N0378            N0379            326.31     0.015      0          0          0          0         
N0379            N0379            N0380            311.69     0.015      0          0          0          0         
N0380            N0380            N0637          241.13     0.015      0          0          0          0         
N0381            N0381            N0378            595.17     0.015      0          0          0          0         
N0383           N0383           4161             558.98     0.015      0          0.17       0          0         
N0385            N0385            6857             192.88     0.015      0          0          0          0         
L0078          N0384              N0382      118.55     0.015      0          5          0          0         
L0079          N0382      N0655      5          0.015      0          0          0          0         
L0080         N0390       N0158         436.8      0.015      0          0          0          0         
N0391           N0391           N0633         105.14     0.015      0          0          0          0         
N0392           N0392           N0634         121.59     0.015      0          0          0          0         
N0393           N0393           N0391           284.41     0.015      0          3.65       0          0         
N0394           N0394           5475             268.5      0.015      0          0          0          0         
N0395           N0395           5431             322.49     0.015      0          1.85       0          0         
N0396            N0396            4251             267.59     0.017      0          0          0          0         
N0397          N0397          N0530           925        0.013      0          0          0          0         
N0398          N0398          N0397          798        0.013      0          0          0          0         
L0081         N0399          N0398          176.5      0.013      0          0          0          0         
N0399          N0400          N0399          67.49      0.013      0          0          0          0         
N0401          N0398          N0401          19.21      0.01       0          0          0          0         
L0082          N0401          N0270           68.73      0.01       0          0          0          0         
N0402            N0402            N0576          259.63     0.015      0          0          0          0         
N0403            N0403            N0402            138.41     0.015      0          0          0          0         
N0404            N0404            N0403            126.44     0.015      0          0          0          0         
N0405            N0405            N0404            305.97     0.015      0          0          0          0         
N0406           N0406           N0407           36.41      0.015      0          0          0          0         
N0407           N0407           N0408           212.09     0.015      0          0          0          0         
N0408           N0408           N0534           232.48     0.015      0          0          0          0         
N0409             N0409             N0419             858.93     0.015      0          0          0          0         
N0410            N0429         N0653       145.91     0.015      0          11         0          0         
N0411            N0410            N0411            79         0.015      0          0          0          0         
N0412            N0411            N0412            249.24     0.015      0          0          0          0         
L0083            N0412            N0653       103.37     0.015      0          11         0          0         
N0414            N0413            N0426             758.93     0.015      0          0          0          0         
N0415            N0414            N0413            277.98     0.015      0          0          0          0         
N0416            N0415            N0414            402.45     0.015      0          0          0          0         
N0417            N0416            N0415            465.58     0.015      0          0          0          0         
N0418            N0417            N0416            896.1      0.015      0          0          0          0         
N0419             N0419             N0420             289.03     0.015      0          0          0          0         
L0084            N0418            N0417            463.16     0.015      0          0          0          0         
N0420             N0420             N0421             60.96      0.015      0          0          0          0         
N0421             N0421             N0422             143.68     0.015      0          0          0          0         
N0422             N0422             N0423             264.11     0.015      0          0          0          0         
N0423             N0423             N0424             846.21     0.015      0          0          0          0         
N0424             N0424             N0425             532.92     0.015      0          0          0          0         
N0425             N0425             N0426             454.12     0.015      0          0          0          0         
N0426             N0426             N0410            660.94     0.015      0          0          0          0         
L0085            N0598            N0524             2002.13    0.015      0          0          0          0         
N0427            N0427            4568             210.49     0.015      0          0.08       0          0         
N0428            N0428            N0427            57.15      0.015      0          2.98       0          0         
N0430           N0430           6709             210.83     0.03       0          0          0          0         
N0431           N0431           N0216        162.64     0.015      0          0          0          0         
N0432          N0432          N0445           386.95     0.015      0          0          0          0         
N0433          N0433          N0432          153.58     0.015      0          0          0          0         
N0434          N0434          N0433          160.94     0.015      0          0          0          0         
N0435          N0435          N0434          247.54     0.015      0          0          0          0         
N0436          N0436          N0435          247.87     0.015      0          0          0          0         
N0437          N0437          N0436          132.64     0.015      0          0          0          0         
N0438           N0438           N0431           208.12     0.015      0          0          0          0         
N0439           N0439           N0438           253.51     0.015      0          0          0          0         
N0440           N0440           N0439           113.62     0.015      0          0          0          0         
N0441           N0441           N0440           288.15     0.015      0          0          0          0         
N0442           N0442           N0441           111.29     0.015      0          0          0          0         
N0443           N0443           N0442           299.64     0.015      0          0          0          0         
N0444           N0444           N0443           401.78     0.015      0          0          0          0         
N0445           N0445           N0444           139.93     0.015      0          0          0          0         
N0446        N0446        N0218            850.96     0.015      0          0          0          0         
L0086             N0447           5432             249        0.017      0          3          0          0         
L0087       N0448           N0447           622.04     0.017      0          0          0          0         
N0452           N0452           2637             934.25     0.015      0          0          0          0         
N0453           N0453           2615             588        0.015      0          0          0          0         
L0088          N0454        N0427            49.69      0.015      0          0.25       0          0         
L0089           N0062            3063             309.57     0.015      0          0          0          0         
L0090           N0063            3252             690.12     0.015      0          0          0          0         
N0455           N0455           2927             1236.26    0.015      0          0          0          0         
N0456           N0456           N0552           367.27     0.015      0          0          0          0         
L0091     N0456           N0557           15.57      0.015      0          0          0          0         
N0457           N0457           N0456           32.98      0.015      0          0          0          0         
N0458           N0458           N0557           219.46     0.015      0          0          0          0         
N0459           N0459           N0387            499.97     0.015      1.39       2.25       0          0         
N0460           N0460           N0459           40.69      0.015      0          0          0          0         
N0461           N0461           N0460           561.33     0.015      0          1.6        0          0         
N0462           N0462           N0463           236.03     0.015      0          0          0          0         
N0463           N0463           N0471           52.65      0.015      0          0          0          0         
N0464           N0464           N0462           982.14     0.015      0          0.08       0          0         
N0465           N0465           N0464           900.34     0.015      0          0.4        0          0         
N0466           N0466           N0465           547.99     0.015      0          0.16       0          0         
N0468           N0468           N0467           143.84     0.015      0          0          0          0         
N0469           N0469           N0470           45.18      0.015      0          0          0          0         
N0471           N0471           N0461           785.13     0.015      0          0.2        0          0         
N0472         N0472         N0466           367.18     0.015      0          0          0          0         
N0474           N0474           N0473           79.39      0.015      0          0          0          0         
N0475           N0475           N0474           602.04     0.015      0          0          0          0         
N0476           N0476           N0475           306.39     0.015      0          0          0          0         
N0477           N0477           N0476           193.87     0.015      0          0          0          0         
N0478           N0478           N0477           198.48     0.015      0          0          0          0         
N0479           N0479           N0478           234.79     0.015      0          1.75       0          0         
N0480           N0480           N0479           182.07     0.015      0          0.5        0          0         
N0481           N0481           2673             177.41     0.015      0          0          0          0         
N0482           N0482           N0069            221.13     0.015      0          0          0          0         
L0092    N0284           N0654     345.99     0.015      0          0          0          0         
N0483            N0483            4617             30.07      0.015      0          0.43       0          0         
N0484           N0484           3576             441.89     0.015      0          0          0          0         
N0485           N0485           3971             2092.12    0.015      0          0.42       0          0         
N0486           N0486           4625             205.28     0.015      0          0.45       0          0         
N0487           N0487           N0489           450.22     0.035      0          0          0          0         
N0488           N0488           4136             121.66     0.015      0          3          0          0         
L0093           N0525           N0488           500.17     0.015      0          0          0          0         
N0489           N0489           4625             77.43      0.015      0          0          0          0         
N0490           N0490           N0239           449.42     0.015      0          0          0          0         
N0491           N0491           3543             153.86     0.015      0          0          0          0         
N0492           N0492           N0493           202.7      0.015      0          0          0          0         
N0493           N0493           4632             3.37       0.015      0          0          0          0         
N0494            N0494            N0508            220.77     0.015      0          0          0          0         
N0495            N0495            N0509            260.41     0.015      0          0          0          0         
N0496            N0496            N0510            1221.48    0.015      0          0          0          0         
N0497            N0497            N0496            449.99     0.015      0          0          0          0         
N0498            N0498            N0039            74.27      0.015      0          1.43       0          0         
L0094         N0499            N0627          135.63     0.015      0          0          0          0         
N0500            N0500            6666             342.08     0.015      0          0          0          0         
N0502            N0502            N0340            165.25     0.015      0          0          0          0         
N0503            N0503            6697             214.25     0.015      0          0          0          0         
N0504            N0504            N0503            29.82      0.015      0          0          0          0         
N0505            N0505            N0031             23.52      0.015      0          0          0          0         
N0506            N0506            N0340            95.9       0.015      0          0          0          0         
N0507            N0507            N0601            689.27     0.015      0          0          0          0         
N0508            N0508            N0049            201.15     0.015      0          0          0          0         
N0509            N0509            N0494            206.1      0.015      0          0          0          0         
N0510            N0510            N0495            1591.1     0.015      0          0          0          0         
N0511           N0511           2543             202.34     0.015      0          0          0          0         
L0095            N0512            N0564            117.79     0.022      0          0.04       0          0         
N0513            N0513            4845             564.97     0.015      0          0          0          0         
N0514            N0514            N0316           199.11     0.015      0          0          0          0         
N0515            N0515            N0039            90.63      0.015      0          0          0          0         
N0516             N0516             N0486           2461.58    0.015      0          0.24       0          0         
N0517             N0517             5279             588.62     0.015      0          0          0          0         
N0518             N0518             N0517             1505.16    0.015      0          0.13       0          0         
N0519             N0519             N0518             1052.74    0.015      0          0          0          0         
N0520             N0520             N0519             427.69     0.015      0          0          0          0         
N0522             N0521             N0520             25.72      0.015      0          0          0          0         
N0523             N0522             N0521             368.98     0.015      0          0          0          0         
N0526             N0526             3528             807.85     0.015      0          0.82       0          0         
L0096          N0530           N0611       729.47     0.017      0          0          0          0         
N0528           N0528           N0610            38.17      0.015      0          0          0          0         
N0529           N0529           N0528           705.82     0.015      0          0          0          0         
L0097         N0531           4525             15.36      0.015      0          0.2        0          0         
N0532           N0532           N0531           163.24     0.015      0          0          0          0         
N0533           N0533           N0532           283.73     0.015      0          0          0          0         
N0534           N0534           N0533           655.27     0.015      0          0          0          0         
N0535           N0535           N0534           215.58     0.015      0          1.75       0          0         
N0536           N0536           N0535           366.91     0.015      0          0          0          0         
N0537           N0537           N0609            425.59     0.017      0          0          0          0         
N0538           N0538           4516             101.2      0.015      0          0          0          0         
N0539           N0539           N0540           300.92     0.015      0          0          0          0         
N0540           N0540           N0541           77.79      0.015      0          2.5        0          0         
N0541           N0541           N0638          425.24     0.015      0          0          0          0         
N0542           N0542           N0544            288.45     0.015      0.5        0          0          0         
N0543           N0543           N0542           199.23     0.015      0          0          0          0         
N0544            N0544            N0346          160.02     0.015      0          7.38       0          0         
N0545            N0545            N0109            17.84      0.015      0.83       0          0          0         
N0546            N0546            N0107            236        0.015      0          0          0          0         
N0547            N0547            N0115            265.45     0.015      0          0          0          0         
N0548            N0548            N0547            575.79     0.015      0          0          0          0         
N0551           N0551           3252             515.66     0.015      0          0          0          0         
N0552           N0552           N0240           456        0.015      0          0          0          0         
N0553           N0553           N0554           27.63      0.015      0          0          0          0         
N0554           N0554           N0555           254.27     0.015      0          0          0          0         
N0555           N0555           N0544            249.23     0.015      0          0          0          0         
N0556           N0556           N0553           80.93      0.015      0          0          0          0         
N0557           N0557           N0599           824.1      0.015      0          0          0          0         
L0098              N0576          N0575          121.33     0.015      0          0          0          0         
L0099              N0569          N0657         243.54     0.015      0          6          0          0         
L0100              N0570          N0569          239.14     0.015      0          0          0          0         
L0101              N0571          N0570          129.37     0.015      0          0          0          0         
L0102              N0572          N0571          102.49     0.015      0          0          0          0         
L0103              N0573          N0572          225.43     0.015      0          0          0          0         
L0104              N0574          N0573          323.38     0.015      0          0          0          0         
L0105              N0575          N0574          140.14     0.015      0          0          0          0         
N0558           N0558           N0312           171.06     0.015      0          0          0          0         
N0559            N0559            N0526             749.51     0.015      0          0.5        0          0         
N0560            N0560            N0562            27.14      0.015      0          0          0          0         
N0561            N0561            2493             608        0.015      0          0          0          0         
N0562            N0562            N0497            427.89     0.015      0          0          0          0         
N0563            N0563            2637             105.11     0.015      0          2.5        0          0         
N0564            N0564            N0565            76.41      0.017      0          0          0          0         
N0565            N0565            N0568            14.73      0.017      0          0          0          0         
N0566            N0566            N0097            63.41      0.017      0          0          0          0         
N0567            N0567            4970             494.12     0.015      0          1.2        0          0         
N0577            N0578            N0632          159.71     0.015      0          0          0          0         
L0106            N0577            5106             24.9       0.015      0          3.34       0          0         
N0581             N0581             N0580             348.45     0.015      0          0          0          0         
N0582             N0582             N0581             138.51     0.015      0          0          0          0         
L0107             N0580             N0579             94.49      0.015      0          0          0          0         
L0108             N0579             N0591              175.87     0.015      0          0          0          0         
L0109             N0591              N0590              334.03     0.015      0          0          0          0         
L0110             N0590              N0589              187.59     0.015      0          0          0          0         
L0111             N0589              N0588              656.52     0.015      0          0          0          0         
L0112            N0588              N0587              60.05      0.015      0          0          0          0         
L0113             N0585              N0587              47.53      0.015      0          0          0          0         
L0114             N0584              N0585              194.71     0.015      0          0          0          0         
L0115             N0583              N0584              259.08     0.015      0          0          0          0         
N0592           N0592           3969             62.93      0.015      0          2          0          0         
N0593           N0593           N0595           636.23     0.015      0          0          0          0         
N0594           N0594           N0595           235.35     0.015      0          0          0          0         
N0595           N0595           N0658       38.89      0.03       0          11.8       0          0         
N0596           N0596           N0242           129.88     0.015      0          0          0          0         
N0597           N0597           4161             698.19     0.015      0          0.17       0          0         
L0116      N0587              N0656       18.62      0.015      0          9          0          0         
L0117          S0318          S0319          1229.71    0.015      0          0          0          0         
N0599           N0599           N0250           495.04     0.015      0          0          0          0         
N0600          N0600          N0303           242.13     0.015      0          0          0          0         
L0118          4746             N0356           6.34       0.015      2.8        0          0          0         
N0601            N0601            N0550            10.8       0.015      0          0          0          0         
L0119           N0602            N0603            561.98     0.015      0          0          0          0         
N0603            N0603            N0003            589.51     0.015      0          0          0          0         
N0604           N0604           N0103            1025.44    0.015      0          0          0          0         
N0605           N0605           N0606       73.78      0.015      0          0          0          0         
N0607           N0607           N0605           181.52     0.016      0          0          0          0         
L0120         N0608            6898             44.6       0.018      0.42       0          0          0         
L0121         N0608            N0236           280.22     0.015      0          0.43       0          0         
N0609            N0609            N0397          140        0.017      0          0          0          0         
N0610            N0610            N0306           596.61     0.015      0          0          0          0         
L0122           4                5                4.49       0.017      0          0          0          0         

[PUMPS]
L0123        N0647      N0195       C0003       ON       3        0       
L0124         N0648      N0293          L0124         ON       7.07     0.5     
L0125        N0649       N0292       L0125        ON       2        0.5     
L0126         N0650        N0342        L0126         ON       3        0.5     
L0127       N0651         N0367          C0004         ON       1.3      0.3     
L0128        N0652        2883             L0128        ON       2        0.5     
L0129      N0655      N0388           C0005    OFF      2        1.5     
L0130      N0655      N0388           C0005    OFF      2.2      1.5     
L0131      N0655      N0388           C0005    OFF      2.4      1.5     
L0132           N0653       N0598            *                ON       3        1       
L0133       N0657         N0370           *                ON       3        1       
L0134          N0658       N0600          L0134          ON       3        0.5     
L0135        N0656       S0318          L0135        ON       3        0.5     

[ORIFICES]
N0084            4172             N0084            SIDE         0          0.5        NO       0         
L0136           N0654     N0616          SIDE         0          0.85       NO       0         
L0137          N0165           N0166           SIDE         0          0.6        NO       0         
L0138          6616             6615             SIDE         0.22       0.6        NO       0         
L0139          6627             6626             SIDE         0          0.6        NO       0         
L0140          3960             6762             SIDE         0          0.6        NO       0         
L0141          3568             3569             SIDE         0          0.65       NO       0         
L0142          N0037           2747             BOTTOM       3.06       0.65       NO       0         
L0143        N0142           N0526             SIDE         6.2        0.65       NO       0         
L0144      N0568            N0647      SIDE         0          0.4        NO       0         
L0145        N0200           N0075            SIDE         0          0.6        NO       0         
L0146        2665             6651             SIDE         0          0.6        NO       0         
L0147      N0291       N0649       SIDE         0          0.65       NO       0.3       
L0148           N0341          N0650        SIDE         0          0.65       NO       0         
L0149       2882             N0652        SIDE         0          0.65       NO       0         
L0150         N0017            N0504            SIDE         0          0.5        NO       0         
L0151        N0015            6696             SIDE         0          0.6        NO       0         
L0152         6624             6622             SIDE         0          0.6        NO       0         
L0153        6642             6645             SIDE         0          0.6        NO       0         
N0454        N0527           N0454        SIDE         0          0.65       NO       0         
L0154      N0606       N0646      SIDE         0          0.2        NO       0.05      
L0155    N0654     N0285           BOTTOM       0          1          NO       0         

[WEIRS]
L0156              2402             N0056            SIDEFLOW     1.97       3.33       NO       0        0          YES       
L0157           N0214           N0215            TRANSVERSE   0.55       3.3        NO       0        0          YES       
L0158          N0008            N0013             SIDEFLOW     1.14       3.3        NO       0        0          YES       
L0159          N0015            N0501            SIDEFLOW     0.5        3.3        NO       0        0          YES       
L0160        N0501            N0502            TRANSVERSE   0.67       3.3        YES      0        0          YES       
L0161          N0017            N0506            TRANSVERSE   0.29       3.3        YES      0        0          YES       
L0162           N0165           N0019            TRANSVERSE   0.6        3.3        NO       0        0          YES       
L0163          6616             6617             TRANSVERSE   2.57       3.3        YES      0        0          YES       
L0164          6624             6623             TRANSVERSE   1.51       3.3        YES      0        0          YES       
L0165          6627             6628             TRANSVERSE   0.33       3.3        YES      0        0          YES       
L0166          6642             6644             TRANSVERSE   0.5        3.3        YES      0        0          YES       
L0167          2665             2663             TRANSVERSE   0.5        3.3        NO       0        0          YES       
L0168          3960             N0124           SIDEFLOW     0.83       3.3        NO       0        0          YES       
L0169          4172             6780             SIDEFLOW     1.29       3.33       NO       0        0          YES       
L0170          4176             4150             SIDEFLOW     0.98       3.3        NO       0        0          YES       
L0171          N0527           4562             TRANSVERSE   3.6        3.33       NO       0        0          YES       
L0172          4516             N0085           TRANSVERSE   0.77       3.3        NO       0        0          YES       
L0173          4558             N0187           TRANSVERSE   0.9        3.3        NO       0        0          YES       
L0174          4725             N0263           TRANSVERSE   1.27       3.3        NO       0        0          YES       
L0175          N0577            N0578            TRANSVERSE   1.08       3.3        NO       0        0          YES       
L0176          5438             N0392           SIDEFLOW     0.88       3.3        NO       0        0          YES       
L0177          5432             N0152           SIDEFLOW     2.25       3.3        NO       0        0          YES       
L0178          5451             N0394           SIDEFLOW     1.34       3.3        NO       0        0          YES       
L0179          N0113            N0154           TRANSVERSE   1.667      3.3        NO       0        0          YES       
L0180          5475             N0395           TRANSVERSE   1.33       3.3        NO       0        0          YES       
L0181          2673             N0482           TRANSVERSE   0.75       3.3        NO       0        0          YES       
L0182          N0098            N0105            TRANSVERSE   2.2        3.3        NO       0        0          YES       
L0183          N0106            N0255           SIDEFLOW     0.87       3.3        YES      0        0          YES       
L0184          N0110            N0545            TRANSVERSE   1          3.3        NO       0        0          YES       
L0185          N0365            N0364            TRANSVERSE   1.13       3.3        NO       0        0          YES       
L0186          N0224            N0223            SIDEFLOW     1          3.3        NO       0        0          YES       
L0187          6857             6871             SIDEFLOW     1.33       3.3        NO       0        0          YES       
L0188          N0156           2972             SIDEFLOW     0.9        3.3        NO       0        0          YES       
L0189          N0361           N0362           SIDEFLOW     1          3.3        NO       0        0          YES       
L0190          3488             3495             SIDEFLOW     0.5        3.3        NO       0        0          YES       
L0191          3568             N0066            TRANSVERSE   2          3.33       NO       0        0          YES       
L0192          3580             3577             SIDEFLOW     0.45       3.3        NO       0        0          YES       
L0193          4246             4247             SIDEFLOW     11.28      3.3        YES      0        0          YES       
L0194           N0044            N0045            SIDEFLOW     4.8        3.3        NO       0        0          YES       
L0195          4829             N0190           TRANSVERSE   2          3.3        NO       0        0          YES       
L0196          N0189           N0190           TRANSVERSE   2.05       3.3        NO       0        0          YES       
L0197           2633             N0563            SIDEFLOW     6.52       3.3        YES      0        0          YES       
L0198           2615             2616             TRANSVERSE   1.9        3.3        NO       0        0          YES       
L0199           N0200           N0074            TRANSVERSE   3.7        3.33       NO       0        0          YES       
L0200           N0078            N0076            TRANSVERSE   2.7        3.3        NO       0        0          YES       
L0201           N0197           N0198           TRANSVERSE   1.6        3          NO       0        0          YES       
L0202           N0042            N0041            TRANSVERSE   3.75       3.3        NO       0        0          YES       
L0203           N0028            N0320           TRANSVERSE   0.67       3.3        NO       0        0          YES       
L0204           N0024            N0227            TRANSVERSE   2          3.3        NO       0        0          YES       
L0205           6709             N0029           TRANSVERSE   3.5        3.3        NO       0        0          YES       
L0206           N0023            N0226            TRANSVERSE   3.21       3.3        NO       0        0          YES       
L0207           N0030             N0220           TRANSVERSE   0.7        3.3        NO       0        0          YES       
L0208           N0009            N0247           TRANSVERSE   2.6        3.33       NO       0        0          YES       
L0209  N0228           N0229          SIDEFLOW     0.37       3.3        NO       0        0          YES       
L0210         N0276          N0586           TRANSVERSE   1.33       3.3        NO       0        0          YES       
L0211         N0277          N0529           SIDEFLOW     2.5        3.3        NO       0        0          YES       
L0212 6724            N0287           TRANSVERSE   1.35       3.3        NO       0        0          YES       
L0213 N0027            N0319           TRANSVERSE   0.67       3.3        NO       0        0          YES       
L0214    N0463           N0469           SIDEFLOW     3.32       3.3        NO       0        0          YES       
L0215    N0470           N0471           SIDEFLOW     3.03       3.3        NO       0        0          YES       
L0216  4614             N0586           TRANSVERSE   1.5        3.33       NO       0        0          YES       
L0217      4632             4633             SIDEFLOW     2          3.3        NO       0        0          YES       
L0218          N0489           N0492           TRANSVERSE   2.3        3.3        NO       0        0          YES       
L0219  N0082            N0083            TRANSVERSE   1.5        3.3        NO       0        0          YES       
L0220          N0147           N0150           TRANSVERSE   1.5        3.3        YES      0        0          YES       
L0221   4581             N0558           SIDEFLOW     0.17       3.3        NO       0        0          YES       

[XSECTIONS]
N0001            CIRCULAR     1                0          0          0          1          0         
L0001            HORSESHOE    7                0          0          0          1          0         
L0002          CIRCULAR     1                0          0          0          1          0         
L0003            CIRCULAR     0.67             0          0          0          1          0         
N0002            HORSESHOE    7                0          0          0          1          0         
N0003            HORSESHOE    7                0          0          0          1          0         
N0004            CIRCULAR     0.83             0          0          0          1          0         
N0005            CIRCULAR     1                0          0          0          1          0         
L0004            CIRCULAR     0.83             0          0          0          1          0         
N0006             CIRCULAR     1.25             0          0          0          1          0         
N0009            CIRCULAR     1                0          0          0          1          0         
N0011            CIRCULAR     0.67             0          0          0          1          0         
N0013             CIRCULAR     0.83             0          0          0          1          0         
N0014            CIRCULAR     0.67             0          0          0          1          0         
1                CIRCULAR     1                0          0          0          1                    
N0016            CIRCULAR     1                0          0          0          1          0         
N0018            CIRCULAR     1.25             0          0          0          1          0         
N0019            CIRCULAR     1.25             0          0          0          1          0         
N0020            CIRCULAR     0.83             0          0          0          1          0         
L0005          CIRCULAR     2.5              0          0          0          1          0         
L0006          CIRCULAR     0.83             0          0          0          1          0         
N0022            CIRCULAR     0.67             0          0          0          1          0         
N0023            CIRCULAR     0.67             0          0          0          1          0         
N0024            CIRCULAR     0.67             0          0          0          1          0         
N0025            CIRCULAR     1.5              0          0          0          1          0         
N0026            CIRCULAR     0.83             0          0          0          1          0         
N0027            CIRCULAR     0.67             0          0          0          1          0         
N0028            CIRCULAR     0.67             0          0          0          1          0         
N0030             CIRCULAR     0.67             0          0          0          1          0         
N0031             CIRCULAR     2                0          0          0          1          0         
N0032            CIRCULAR     1.25             0          0          0          1          0         
N0033            CIRCULAR     2                0          0          0          1          0         
N0034            CIRCULAR     2.5              0          0          0          1          0         
N0035            CIRCULAR     2.5              0          0          0          1          0         
N0036            CIRCULAR     1.5              0          0          0          1          0         
L0007         CIRCULAR     2.75             0          0          0          1          0         
N0037           CIRCULAR     1.5              0          0          0          1          0         
1604             FILLED_CIRCULAR 3             0          0          0          1          0         
N0038             CIRCULAR     1.25             0          0          0          1          0         
N0039            CIRCULAR     2.25             0          0          0          1          0         
N0040            CIRCULAR     2.5              0          0          0          1          0         
N0041            CIRCULAR     1.5              0          0          0          1          0         
N0042            CIRCULAR     0.67             0          0          0          1          0         
N0043            CIRCULAR     1.5              0          0          0          1          0         
N0044            CIRCULAR     0.83             0          0          0          1          0         
N0045            CIRCULAR     1                0          0          0          1          0         
N0046            CIRCULAR     1                0          0          0          1          0         
N0047            CIRCULAR     3                0          0          0          1          0         
N0048            CIRCULAR     3.5              0          0          0          1          0         
N0049            HORSESHOE    7                0          0          0          1          0         
N0051            CIRCULAR     0.83             0          0          0          1          0         
N0052            CIRCULAR     1.25             0          0          0          1          0         
2                CIRCULAR     7.67             0          0          0          1          0         
N0053            CIRCULAR     4                0          0          0          1          0         
N0054            CIRCULAR     7                0          0          0          1          0         
2304             CIRCULAR     3                0          0          0          1          0         
2315             CIRCULAR     2.5              0          0          0          1          0         
2329             CIRCULAR     3                0          0          0          1          0         
2340             CIRCULAR     1.25             0          0          0          1          0         
2399             CIRCULAR     1.5              0          0          0          1          0         
2400             CIRCULAR     0.83             0          0          0          1          0         
L0008            CIRCULAR     1                0          0          0          1          0         
L0009            CIRCULAR     1.5              0          0          0          1                    
2402             CIRCULAR     0.83             0          0          0          1          0         
N0055            CIRCULAR     2                0          0          0          1                    
L0010            CIRCULAR     1.83             0          0          0          1          0         
2493             CIRCULAR     4                0          0          0          1          0         
25               MODBASKETHANDLE 3             4          1.5        0          1          0         
N0058            CIRCULAR     1.83             0          0          0          1          0         
2548             CIRCULAR     3                0          0          0          1          0         
2615             CIRCULAR     2                0          0          0          1          0         
2616             CIRCULAR     4                0          0          0          1          0         
2633             FILLED_CIRCULAR 2             0          0          0          1          0         
2636             FILLED_CIRCULAR 3             1          0          0          1          0         
2637             FILLED_CIRCULAR 5             2.5        0          0          1          0         
N0059            FILLED_CIRCULAR 3             1.5        0          0          1          0         
N0060            CIRCULAR     2.5              0          0          0          1          0         
2662             CIRCULAR     1                0          0          0          1          0         
2663             CIRCULAR     1.5              0          0          0          1          0         
2674             CIRCULAR     1.5              0          0          0          1          0         
2695             HORSESHOE    6                0          0          0          1          0         
2701             CIRCULAR     2.5              0          0          0          1          0         
2716             HORSESHOE    3.5              0          0          0          1          0         
2719             CIRCULAR     4                0          0          0          1          0         
2747             CIRCULAR     2.25             0          0          0          1          0         
2750             CIRCULAR     1.25             0          0          0          1          0         
2754             CIRCULAR     2.5              0          0          0          1          0         
2867             CIRCULAR     4                0          0          0          1          0         
2875             CIRCULAR     3                0          0          0          1          0         
L0011           CIRCULAR     1.67             0          0          0          1          0         
L0012           CIRCULAR     1.25             0          0          0          1          0         
2881             CIRCULAR     1.5              0          0          0          1          0         
2888             FORCE_MAIN   1                130        0          0          1          0         
2901             CIRCULAR     1.5              0          0          0          1          0         
N0061            RECT_CLOSED  7                13         0          0          1          0         
2913             RECT_CLOSED  1.58             2          0          0          1          0         
2927             CIRCULAR     3                0          0          0          1          0         
2936             CIRCULAR     3.5              0          0          0          1          0         
2959             CIRCULAR     1                0          0          0          1          0         
2971             CIRCULAR     2                0          0          0          1          0         
2972             CIRCULAR     2.5              0          0          0          1          0         
L0013           CIRCULAR     0.83             0          0          0          1          0         
3                CIRCULAR     4.5              0          0          0          1          0         
3018             HORSESHOE    4.5              0          0          0          1          0         
L0014          CIRCULAR     1.5              0          0          0          1          0         
3027             HORSESHOE    3.5              0          0          0          1          0         
3063             HORSESHOE    4.5              0          0          0          1          0         
3130             CIRCULAR     2                0          0          0          1          0         
3138             HORSESHOE    5.25             0          0          0          1          0         
3176             CIRCULAR     1                0          0          0          1          0         
3228             CIRCULAR     3                0          0          0          1          0         
3252             CIRCULAR     4.5              0          0          0          1          0         
3259             CIRCULAR     4                0          0          0          1          0         
3359             CIRCULAR     3                0          0          0          1          0         
N0064            HORSESHOE    7                0          0          0          1          0         
3443             HORSESHOE    4.5              0          0          0          1          0         
3472             CIRCULAR     3.5              0          0          0          1          0         
3473             CIRCULAR     5.5              0          0          0          1          0         
3475             CIRCULAR     4.5              0          0          0          1          0         
3476             CIRCULAR     4                0          0          0          1          0         
3486             CIRCULAR     3.5              0          0          0          1          0         
3488             CIRCULAR     1                0          0          0          1          0         
3495             CIRCULAR     2                0          0          0          1          0         
3496             CIRCULAR     1                0          0          0          1          0         
3499             CIRCULAR     1.33             0          0          0          1          0         
3501             CIRCULAR     3                0          0          0          1          0         
3507             CIRCULAR     3                0          0          0          1          0         
N0065            HORSESHOE    7                0          0          0          1          0         
3528             CIRCULAR     5                0          0          0          1          0         
3540             CIRCULAR     0.67             0          0          0          1          0         
L0015           CIRCULAR     1.5              0          0          0          1          0         
3543             CIRCULAR     1.25             0          0          0          1          0         
3557             RECT_CLOSED  6                6          0          0          1          0         
3562             HORSESHOE    5.75             0          0          0          1          0         
L0016          CIRCULAR     5                0          0          0          1          0         
L0017           CIRCULAR     1.67             0          0          0          1          0         
3573             CIRCULAR     0.67             0          0          0          1          0         
3576             CIRCULAR     3.5              0          0          0          1          0         
3577             CIRCULAR     1.5              0          0          0          1          0         
3580             CIRCULAR     0.67             0          0          0          1          0         
3583             CIRCULAR     3.5              0          0          0          1          0         
3604             HORSESHOE    2.58             0          0          0          1          0         
3862             CIRCULAR     2                0          0          0          1          0         
3865             CIRCULAR     2.25             0          0          0          1          0         
3917             CIRCULAR     1.5              0          0          0          1          0         
3918             CIRCULAR     1.5              0          0          0          1          0         
3919             CIRCULAR     3.5              0          0          0          1          0         
3926             CIRCULAR     1.5              0          0          0          1          0         
3928             CIRCULAR     3.5              0          0          0          1          0         
N0067            HORSESHOE    7                0          0          0          1          0         
3935             RECT_CLOSED  5.5              5.5        0          0          1          0         
N0068            HORSESHOE    6.5              0          0          0          1          0         
N0069            HORIZ_ELLIPSE 8               0          0          0          1          0         
N0070            HORIZ_ELLIPSE 10              0          0          0          1          0         
3962             CIRCULAR     3                0          0          0          1          0         
3969             CIRCULAR     2                0          0          0          2          0         
3971             CIRCULAR     3.5              0          0          0          1          0         
3992             CIRCULAR     3                0          0          0          1          0         
N0071            CIRCULAR     5                0          0          0          1          0         
4                CIRCULAR     4.5              0          0          0          1          0         
N0072            CIRCULAR     6                0          0          0          1          0         
N0073            HORSESHOE    4                0          0          0          1          0         
N0074            CIRCULAR     6                0          0          0          1          0         
N0075            CIRCULAR     2                0          0          0          1          0         
4027             CIRCULAR     2.5              0          0          0          1          0         
4029             CIRCULAR     2.25             0          0          0          1          0         
N0076            CIRCULAR     4.5              0          0          0          1          0         
N0077            HORSESHOE    5                0          0          0          1          0         
4032             CIRCULAR     2.25             0          0          0          1          0         
N0078            HORSESHOE    5                0          0          0          1          0         
L0018           CIRCULAR     1.5              0          0          0          1                    
4049             CIRCULAR     1.67             0          0          0          1          0         
N0080            HORSESHOE    5                0          0          0          1          0         
4088             CIRCULAR     1.25             0          0          0          1          0         
N0081            CIRCULAR     2                0          0          0          1          0         
N0082            CIRCULAR     2                0          0          0          1          0         
N0083            CIRCULAR     4                0          0          0          1          0         
4136             CIRCULAR     2                0          0          0          1          0         
4144             CIRCULAR     1.5              0          0          0          1          0         
4150             CIRCULAR     1.25             0          0          0          1          0         
4151             CIRCULAR     0.67             0          0          0          1          0         
4160             CIRCULAR     2                0          0          0          1          0         
4161             CIRCULAR     1                0          0          0          1          0         
4163             CIRCULAR     1                0          0          0          1          0         
4164             CIRCULAR     2                0          0          0          1          0         
4172             CIRCULAR     1.5              0          0          0          1          0         
4175             CIRCULAR     1                0          0          0          1          0         
4176             CIRCULAR     1.25             0          0          0          1          0         
4191             FILLED_CIRCULAR 1.25          0.15       0          0          1          0         
4195             CIRCULAR     2                0          0          0          1          0         
4198             CIRCULAR     1                0          0          0          1          0         
4201             CIRCULAR     1.5              0          0          0          1          0         
4208             FILLED_CIRCULAR 0.67          0.2        0          0          1          0         
4219             CIRCULAR     1                0          0          0          1          0         
4246             FILLED_CIRCULAR 2             0          0          0          1                    
L0019           FILLED_CIRCULAR 1.75          0.25       0          0          1          0         
4247             FILLED_CIRCULAR 2             0          0          0          1          0         
4251             FILLED_CIRCULAR 1.25          0.15       0          0          1          0         
4516             CIRCULAR     0.83             0          0          0          1          0         
N0085           CIRCULAR     1.5              0          0          0          1          0         
4517             CIRCULAR     0.83             0          0          0          1          0         
4523             CIRCULAR     3                0          0          0          1          0         
4524             CIRCULAR     5                0          0          0          1          0         
4525             CIRCULAR     3                0          0          0          1          0         
4527             CIRCULAR     3                0          0          0          1          0         
4533             CIRCULAR     2                0          0          0          1          0         
4543             CIRCULAR     3                0          0          0          1          0         
4546             CIRCULAR     1.25             0          0          0          1          0         
4551             CIRCULAR     0.67             0          0          0          1          0         
4555             CIRCULAR     1                0          0          0          1          0         
4556             CIRCULAR     0.83             0          0          0          1          0         
4557             CIRCULAR     2.5              0          0          0          1          0         
4558             CIRCULAR     1                0          0          0          1          0         
4560             CIRCULAR     4                0          0          0          1          0         
4562             CIRCULAR     3                0          0          0          2          0         
4567             CIRCULAR     0.83             0          0          0          1          0         
4568             CIRCULAR     1                0          0          0          1          0         
4569             CIRCULAR     0.83             0          0          0          1          0         
4574             CIRCULAR     1.25             0          0          0          1          0         
4581             CIRCULAR     0.67             0          0          0          1          0         
4582             CIRCULAR     1                0          0          0          1          0         
4583             CIRCULAR     2                0          0          0          1          0         
4594             CIRCULAR     0.67             0          0          0          1          0         
4600             CIRCULAR     2                0          0          0          1          0         
L0020           CIRCULAR     4                0          0          0          1          0         
L0021           CIRCULAR     0.833            0          0          0          1          0         
N0086            CIRCULAR     3.5              0          0          0          1          0         
4617             CIRCULAR     3                0          0          0          1          0         
4625             CIRCULAR     3                0          0          0          1          0         
N0087            CIRCULAR     5                0          0          0          1          0         
N0088            CIRCULAR     5.5              0          0          0          1          0         
N0089            CIRCULAR     4                0          0          0          1          0         
4631             HORSESHOE    3.75             0          0          0          1          0         
4633             CIRCULAR     2                0          0          0          1          0         
4642             CIRCULAR     2                0          0          0          1          0         
4693             CIRCULAR     3                0          0          0          1          0         
4696             MODBASKETHANDLE 3.46          3.5        1.5        0          1          0         
4698             CIRCULAR     1.67             0          0          0          1          0         
N0090            CIRCULAR     3                0          0          0          1          0         
N0091            CIRCULAR     3                0          0          0          1          0         
4723             CIRCULAR     1.75             0          0          0          1          0         
4725             CIRCULAR     0.67             0          0          0          1          0         
4727             CIRCULAR     2                0          0          0          1          0         
4744             CIRCULAR     3                0          0          0          1          0         
4746             CIRCULAR     1                0          0          0          1          0         
N0092             CIRCULAR     4                0          0          0          1          0         
N0093             CIRCULAR     3                0          0          0          1          0         
4782             CIRCULAR     2.5              0          0          0          1          0         
4801             MODBASKETHANDLE 3.875         5.33       1.5        0          1          0         
L0022           CIRCULAR     0.83             0          0          0          1          0         
4828             CIRCULAR     3                0          0          0          1          0         
L0023           CIRCULAR     3                0          0          0          1          0         
4829             CIRCULAR     0.83             0          0          0          1          0         
4837             CIRCULAR     2                0          0          0          1          0         
4845             CIRCULAR     1.75             0          0          0          1          0         
N0095             CIRCULAR     4                0          0          0          1          0         
4939             CIRCULAR     3                0          0          0          1          0         
4970             CIRCULAR     2.5              0          0          0          1          0         
5                HORSESHOE    4                0          0          0          1          0         
5068             CIRCULAR     1.5              0          0          0          1          0         
5070             CIRCULAR     2.75             0          0          0          1          0         
5079             CIRCULAR     2.5              0          0          0          1          0         
5091             CIRCULAR     3.5              0          0          0          1          0         
5092             CIRCULAR     1.5              0          0          0          1          0         
5093             CIRCULAR     2                0          0          0          1          0         
5095             CIRCULAR     2                0          0          0          1          0         
5097             CIRCULAR     2                0          0          0          1          0         
5104             CIRCULAR     2                0          0          0          1          0         
5105             CIRCULAR     2                0          0          0          1          0         
5106             CIRCULAR     1.5              0          0          0          1          0         
5122             CIRCULAR     1.5              0          0          0          1          0         
5123             CIRCULAR     3.5              0          0          0          1          0         
5126             CIRCULAR     1.25             0          0          0          1          0         
N0097            HORSESHOE    6.5              0          0          0          1          0         
L0024            CIRCULAR     1                0          0          0          1          0         
N0099            CIRCULAR     2.5              0          0          0          1          0         
5152             CIRCULAR     1.67             0          0          0          1          0         
N0100            CIRCULAR     3                0          0          0          1          0         
N0101            CIRCULAR     3.5              0          0          0          1          0         
N0102             CIRCULAR     0.877            0          0          0          3          0         
N0103            RECT_CLOSED  7                5          0          0          1          0         
N0104             CIRCULAR     1.75             0          0          0          1          0         
5279             CIRCULAR     2.5              0          0          0          1          0         
5290             CIRCULAR     3                0          0          0          1          0         
N0105            CIRCULAR     1                0          0          0          1          0         
N0106            CIRCULAR     2                0          0          0          1          0         
5426             CIRCULAR     1                0          0          0          1          0         
N0107            HORSESHOE    6.5              0          0          0          1          0         
5427             CIRCULAR     1                0          0          0          1          0         
N0108            HORSESHOE    6                0          0          0          1          0         
L0025           CIRCULAR     1                0          0          0          1          0         
5430             CIRCULAR     1                0          0          0          1          0         
N0109            CIRCULAR     2                0          0          0          1          0         
5431             CIRCULAR     6                0          0          0          1          0         
N0110            CIRCULAR     2                0          0          0          1          0         
5432             CIRCULAR     1.5              0          0          0          1          0         
N0111            CIRCULAR     1.5              0          0          0          2          0         
N0112            CIRCULAR     0.83             0          0          0          1          0         
5434             CIRCULAR     1.5              0          0          0          1          0         
5435             CIRCULAR     1                0          0          0          1          0         
5437             CIRCULAR     0.67             0          0          0          1          0         
5438             CIRCULAR     1                0          0          0          1          0         
N0114            CIRCULAR     3                0          0          0          1          0         
N0115            HORSESHOE    6                0          0          0          1          0         
5450             CIRCULAR     2.5              0          0          0          1          0         
5451             CIRCULAR     2                0          0          0          1          0         
5474             CIRCULAR     2.5              0          0          0          1          0         
5475             CIRCULAR     0.5              0          0          0          1          0         
N0116            CIRCULAR     2                0          0          0          1          0         
N0118            CIRCULAR     4.5              0          0          0          1          0         
L0026            HORSESHOE    6                0          0          0          1          0         
L0027            CIRCULAR     2                0          0          0          1          0         
L0028            HORSESHOE    6                0          0          0          1          0         
N0120             CIRCULAR     4                0          0          0          1          0         
5695             CIRCULAR     1.25             0          0          0          1          0         
N0121            CIRCULAR     3                0          0          0          1          0         
N0122            CIRCULAR     4                0          0          0          1          0         
6594             CIRCULAR     1.5              0          0          0          1          0         
6609             CIRCULAR     2                0          0          0          1          0         
6615             CIRCULAR     1                0          0          0          1          0         
6617             CIRCULAR     2                0          0          0          1          0         
6620             CIRCULAR     1.25             0          0          0          1          0         
6622             CIRCULAR     0.67             0          0          0          1          0         
6623             CIRCULAR     0.83             0          0          0          1          0         
6626             CIRCULAR     0.83             0          0          0          1          0         
6628             CIRCULAR     2                0          0          0          1          0         
6633             CIRCULAR     2.5              0          0          0          1          0         
6635             CIRCULAR     2.5              0          0          0          1          0         
6643             CIRCULAR     0.67             0          0          0          1          0         
6644             CIRCULAR     1                0          0          0          1          0         
6645             CIRCULAR     1                0          0          0          1          0         
6646             CIRCULAR     2                0          0          0          1          0         
6649             CIRCULAR     1                0          0          0          1          0         
6650             CIRCULAR     1.25             0          0          0          1          0         
6651             CIRCULAR     1                0          0          0          1          0         
6662             FORCE_MAIN   1.5              140        0          0          1          0         
6666             CIRCULAR     3                0          0          0          1          0         
6694             CIRCULAR     1.5              0          0          0          1          0         
6696             CIRCULAR     0.83             0          0          0          1          0         
6697             CIRCULAR     1.25             0          0          0          1          0         
6698             CIRCULAR     1.25             0          0          0          1          0         
6705             CIRCULAR     1.25             0          0          0          1          0         
6708             CIRCULAR     0.67             0          0          0          1          0         
6709             CIRCULAR     1.25             0          0          0          1          0         
6720             CIRCULAR     2                0          0          0          1          0         
L0029          CIRCULAR     2                0          0          0          1          0         
6721             HORSESHOE    4.17             0          0          0          1          0         
6722             CIRCULAR     4.5              0          0          0          1          0         
6723             HORSESHOE    4.17             0          0          0          1          0         
6724             FILLED_CIRCULAR 0.67          0.2        0          0          1          0         
6725             HORSESHOE    4.17             0          0          0          1          0         
6734             CIRCULAR     4.5              0          0          0          1          0         
N0123            RECT_CLOSED  7                13         0          0          1          0         
6753             CIRCULAR     1.133            0          0          0          1          0         
6760             RECT_TRIANGULAR 3.25          7          0.25       0          1          0         
6762             CIRCULAR     1                0          0          0          1          0         
N0124           CIRCULAR     2.5              0          0          0          1          0         
6767             CIRCULAR     3                0          0          0          1          0         
6768             CIRCULAR     2                0          0          0          1          0         
6780             CIRCULAR     3.5              0          0          0          1          0         
6802             CIRCULAR     1.5              0          0          0          1          0         
6803             HORSESHOE    4                0          0          0          1          0         
L0030           CIRCULAR     4.5              0          0          0          1          0         
6804             CIRCULAR     4.5              0          0          0          1          0         
6840             CIRCULAR     1                0          0          0          1          0         
6850             RECT_CLOSED  2                3.17       0          0          1          0         
6857             CIRCULAR     1                0          0          0          1          0         
6858             HORSESHOE    6                0          0          0          1          0         
6871             CIRCULAR     2.5              0          0          0          1          0         
6874             CIRCULAR     3.5              0          0          0          1          0         
6898             HORSESHOE    4.5              0          0          0          1          0         
6944             CIRCULAR     2.5              0          0          0          1          0         
6958             CIRCULAR     6                0          0          0          1          0         
6959             CIRCULAR     4.5              0          0          0          1          0         
N0125           CIRCULAR     2.5              0          0          0          1          0         
N0126           HORSESHOE    6                0          0          0          1          0         
N0127           CIRCULAR     2.5              0          0          0          1          0         
N0128            CIRCULAR     5                0          0          0          1          0         
N0129            HORSESHOE    6                0          0          0          1          0         
N0131          CIRCULAR     2.5              0          0          0          1          0         
L0031          CIRCULAR     2.5              0          0          0          1          0         
N0132            CIRCULAR     0.83             0          0          0          1          0         
N0133            CIRCULAR     2.5              0          0          0          1          0         
N0134            CIRCULAR     0.667            0          0          0          1          0         
N0135            CIRCULAR     2                0          0          0          1          0         
N0136            CIRCULAR     2                0          0          0          1          0         
N0137            CIRCULAR     2                0          0          0          1          0         
N0138            CIRCULAR     2                0          0          0          1          0         
N0139            CIRCULAR     2                0          0          0          1          0         
N0140            CIRCULAR     1.333            0          0          0          1          0         
N0141            CIRCULAR     1.333            0          0          0          1          0         
N0142           CIRCULAR     4.5              0          0          0          1          0         
N0143          CIRCULAR     1.25             0          0          0          1          0         
N0144          CIRCULAR     2                0          0          0          1          0         
N0145           CIRCULAR     4.5              0          0          0          1          0         
N0146           CIRCULAR     3                0          0          0          1          0         
N0147           RECT_CLOSED  6                6          0          0          1          0         
N0148           RECT_CLOSED  6                6          0          0          1          0         
N0149           HORSESHOE    3.5              0          0          0          1          0         
N0150           CIRCULAR     5.5              0          0          0          1          0         
L0032         CIRCULAR     2.5              0          0          0          1          0         
N0151           CIRCULAR     0.83             0          0          0          1          0         
N0152           CIRCULAR     1.67             0          0          0          1          0         
N0153           CIRCULAR     1.5              0          0          0          1          0         
N0155           CIRCULAR     2.75             0          0          0          1          0         
N0157           HORSESHOE    3.7              0          0          0          1          0         
L0033          CIRCULAR     1.25             0          0          0          1          0         
N0162           CIRCULAR     0.83             0          0          0          1          0         
N0163           CIRCULAR     1                0          0          0          1          0         
N0164           CIRCULAR     1.25             0          0          0          1          0         
N0166           CIRCULAR     0.83             0          0          0          1          0         
N0167            CIRCULAR     1.25             0          0          0          1                    
N0168            CIRCULAR     1                0          0          0          1                    
N0169            CIRCULAR     1                0          0          0          1                    
N0170            CIRCULAR     3.5              0          0          0          1          0         
N0171            CIRCULAR     4                0          0          0          1          0         
N0172            CIRCULAR     4                0          0          0          1          0         
N0173            CIRCULAR     4                0          0          0          1          0         
N0174            CIRCULAR     4.5              0          0          0          1          0         
N0175            CIRCULAR     4.5              0          0          0          1          0         
N0176            CIRCULAR     4.5              0          0          0          1          0         
N0177            CIRCULAR     4.5              0          0          0          1          0         
N0178            CIRCULAR     4.5              0          0          0          1          0         
N0179            CIRCULAR     3.5              0          0          0          1          0         
N0180           CIRCULAR     3                0          0          0          1          0         
N0181           CIRCULAR     3                0          0          0          1          0         
N0182           CIRCULAR     2                0          0          0          1          0         
N0183           CIRCULAR     2                0          0          0          1          0         
N0184           CIRCULAR     1.5              0          0          0          1          0         
N0185           CIRCULAR     1.5              0          0          0          1          0         
N0186           CIRCULAR     1                0          0          0          1          0         
N0187           CIRCULAR     1.5              0          0          0          1          0         
N0188           CIRCULAR     1                0          0          0          1          0         
N0190           CIRCULAR     3                0          0          0          1          0         
N0191           CIRCULAR     0.83             0          0          0          2          0         
L0034         CIRCULAR     0.67             0          0          0          1          0         
N0192           RECT_TRIANGULAR 4.25          5          0.25       0          1          0         
N0193           CIRCULAR     2                0          0          0          1          0         
N0194           CIRCULAR     2                0          0          0          1          0         
N0195       FORCE_MAIN   2.5              130        0          0          1          0         
N0196           CIRCULAR     4.5              0          0          0          1          0         
N0197           CIRCULAR     2                0          0          0          1          0         
N0198           HORSESHOE    6                0          0          0          1          0         
N0199           CIRCULAR     6                0          0          0          1          0         
N0200           RECT_CLOSED  1                3          0          0          1          0         
N0201           HORSESHOE    6.042            0          0          0          1          0         
N0202           CIRCULAR     4                0          0          0          1          0         
N0203           CIRCULAR     4.5              0          0          0          1          0         
N0204            CIRCULAR     1                0          0          0          1          0         
N0205            CIRCULAR     1                0          0          0          1          0         
N0206            CIRCULAR     1                0          0          0          1          0         
N0207            CIRCULAR     1                0          0          0          1          0         
N0208            CIRCULAR     1                0          0          0          1          0         
N0209            CIRCULAR     1                0          0          0          1          0         
N0210            CIRCULAR     1.333            0          0          0          1          0         
N0211            CIRCULAR     1.333            0          0          0          1          0         
N0212            CIRCULAR     1.333            0          0          0          1          0         
N0213           CIRCULAR     4                0          0          0          1          0         
L0035        MODBASKETHANDLE 3             4          1.5        0          1          0         
N0217             CIRCULAR     3                0          0          0          1          0         
N0218            CIRCULAR     3                0          0          0          1          0         
N0219            CIRCULAR     3                0          0          0          1          0         
L0036               CIRCULAR     5                0          0          0          1                    
L0037               CIRCULAR     3                0          0          0          1                    
N0220           CIRCULAR     1                0          0          0          1          0         
N0221            CIRCULAR     4                0          0          0          1          0         
N0222            CIRCULAR     3                0          0          0          1          0         
N0223            CIRCULAR     1.5              0          0          0          2          0         
N0224            CIRCULAR     2                0          0          0          1          0         
N0225            CIRCULAR     2                0          0          0          2          0         
N0226            CIRCULAR     1.5              0          0          0          1          0         
N0227            CIRCULAR     1.25             0          0          0          1          0         
L0038        CIRCULAR     1.667            0          0          0          1          0         
L0039        CIRCULAR     1.25             0          0          0          1          0         
L0040        CIRCULAR     4.5              0          0          0          1          0         
L0041             CUSTOM       5                L0041       0          0          1                    
L0042           CIRCULAR     2.5              0          0          0          1          0         
L0043           CIRCULAR     3.5              0          0          0          1          0         
L0044           CIRCULAR     2                0          0          0          1          0         
L0045           CIRCULAR     3.5              0          0          0          1          0         
L0046           CIRCULAR     3                0          0          0          1          0         
L0047           CIRCULAR     2                0          0          0          1          0         
L0048           HORSESHOE    6                0          0          0          1          0         
L0049           HORSESHOE    6                0          0          0          1          0         
L0050           FORCE_MAIN   2                130        0          0          1          0         
L0051           FORCE_MAIN   2                130        0          0          1          0         
L0052           CIRCULAR     2.25             0          0          0          1          0         
L0053           CIRCULAR     3                0          0          0          1          0         
L0054           CIRCULAR     1.67             0          0          0          1          0         
L0055           CIRCULAR     1.5              0          0          0          1          0         
L0056         CIRCULAR     6                0          0          0          1          0         
L0057         CIRCULAR     4.333            0          0          0          1          0         
L0058         CIRCULAR     6                0          0          0          1          0         
L0059         CIRCULAR     6                0          0          0          1          0         
L0060         CIRCULAR     4.5              0          0          0          1          0         
L0061          HORSESHOE    3.5              0          0          0          1          0         
N0229          CIRCULAR     3                0          0          0          1          0         
N0230            CIRCULAR     5.5              0          0          0          1          0         
N0231           CIRCULAR     4.5              0          0          0          1          0         
N0232           CIRCULAR     4.5              0          0          0          1          0         
N0233           CIRCULAR     6                0          0          0          1          0         
N0234           CIRCULAR     4.5              0          0          0          1          0         
N0235           CIRCULAR     3.5              0          0          0          1          0         
N0236           CIRCULAR     4                0          0          0          1          0         
N0237           CIRCULAR     2                0          0          0          1          0         
N0238           CIRCULAR     4                0          0          0          1          0         
N0239           CIRCULAR     4                0          0          0          1          0         
N0240           HORSESHOE    3.5              0          0          0          1          0         
N0241           FILLED_CIRCULAR 1.75          0.3        0          0          1          0         
N0242           CIRCULAR     2.5              0          0          0          1          0         
N0243           CIRCULAR     1.25             0          0          0          1          0         
N0244           HORSESHOE    4                0          0          0          1          0         
N0245           CIRCULAR     1.5              0          0          0          1          0         
N0246           CIRCULAR     0.83             0          0          0          1          0         
N0247           CIRCULAR     1                0          0          0          1          0         
N0248           CIRCULAR     0.67             0          0          0          1          0         
N0249           CIRCULAR     0.67             0          0          0          1          0         
N0250           CIRCULAR     3.5              0          0          0          1          0         
N0251           CIRCULAR     5                0          0          0          1          0         
N0252           CIRCULAR     5                0          0          0          1          0         
N0253           CIRCULAR     5.5              0          0          0          1          0         
N0254           CIRCULAR     5.5              0          0          0          1          0         
N0255           CIRCULAR     6                0          0          0          1          0         
N0256           CIRCULAR     6                0          0          0          1          0         
N0257           HORSESHOE    4                0          0          0          1          0         
N0258           CIRCULAR     1.5              0          0          0          1          0         
N0259           HORSESHOE    3.5              0          0          0          1          0         
N0260           MODBASKETHANDLE 3.875         5.33       1.5        0          1          0         
N0261           MODBASKETHANDLE 3.875         5.33       1.5        0          1          0         
N0262          CIRCULAR     2                0          0          0          1          0         
N0263           CIRCULAR     3.5              0          0          0          1          0         
N0264           CIRCULAR     1                0          0          0          1          0         
N0265           CIRCULAR     0.83             0          0          0          1          0         
N0266           CIRCULAR     1.5              0          0          0          1          0         
N0267           FILLED_CIRCULAR 2             0.3        0          0          1          0         
N0268           CIRCULAR     0.83             0          0          0          1          0         
N0269           CIRCULAR     1.5              0          0          0          1          0         
N0270           CIRCULAR     1.5              0          0          0          1                    
N0271          CIRCULAR     2                0          0          0          1          0         
N0272          CIRCULAR     2                0          0          0          1          0         
N0273          CIRCULAR     2                0          0          0          1          0         
N0274          FILLED_CIRCULAR 2             0.5        0          0          1          0         
N0275          RECT_CLOSED  2                4          0          0          1          0         
N0276          CIRCULAR     2                0          0          0          1          0         
N0277          CIRCULAR     3                0          0          0          1          0         
N0278           HORSESHOE    7                0          0          0          1          0         
N0279         CIRCULAR     1.5              0          0          0          1          0         
N0280         CIRCULAR     2                0          0          0          1          0         
N0281           CIRCULAR     7                0          0          0          1          0         
N0282           CIRCULAR     2.5              0          0          0          1          0         
N0283           CIRCULAR     2                0          0          0          1          0         
N0285           CIRCULAR     5                0          0          0          1          0         
N0286           CIRCULAR     2                0          0          0          1          0         
N0287           HORSESHOE    4.17             0          0          0          1          0         
N0288           RECT_CLOSED  4                4          0          0          1          0         
N0289           CIRCULAR     1.25             0          0          0          1          0         
N0290           CIRCULAR     1.5              0          0          0          1          0         
L0062           CIRCULAR     1                0          0          0          1          0         
N0292       FORCE_MAIN   2                130        0          0          1          0         
N0293          FORCE_MAIN   1.17             130        0          0          1          0         
N0294            CIRCULAR     4.5              0          0          0          1          0         
N0295           HORSESHOE    6.75             0          0          0          1          0         
N0296           HORSESHOE    6.5              0          0          0          1          0         
N0297           HORSESHOE    6.25             0          0          0          1          0         
N0298           HORSESHOE    5.62             0          0          0          1          0         
N0299           HORSESHOE    3.75             0          0          0          1          0         
N0300           CIRCULAR     4                0          0          0          1          0         
L0063           CIRCULAR     4                0          0          0          1          0         
N0301           CIRCULAR     4.5              0          0          0          1          0         
N0302           RECT_CLOSED  6                8          0          0          1          0         
N0303           FORCE_MAIN   3                130        0          0          1          0         
N0304           FORCE_MAIN   3                130        0          0          1          0         
N0305           RECT_CLOSED  7                13         0          0          2          0         
L0064       CIRCULAR     4                0          0          0          1          0         
N0307           HORSESHOE    3.83             0          0          0          1          0         
N0308           MODBASKETHANDLE 2.5           4          1.5        0          1          0         
N0309           MODBASKETHANDLE 3             4          1.5        0          1          0         
N0310           CIRCULAR     2.5              0          0          0          1          0         
N0311           CIRCULAR     3                0          0          0          1          0         
N0312           CIRCULAR     1                0          0          0          1          0         
N0313           CIRCULAR     1.25             0          0          0          1          0         
N0314           CIRCULAR     1.25             0          0          0          1          0         
N0315           CIRCULAR     1.5              0          0          0          1          0         
N0316           CIRCULAR     1.25             0          0          0          1          0         
N0317           CIRCULAR     0.83             0          0          0          1          0         
N0318           CIRCULAR     0.83             0          0          0          1          0         
N0319           CIRCULAR     1.25             0          0          0          1          0         
N0320           CIRCULAR     1.25             0          0          0          1          0         
N0321           CIRCULAR     2                0          0          0          1          0         
N0322           CIRCULAR     2                0          0          0          1          0         
N0323           CIRCULAR     1.75             0          0          0          1          0         
N0324           CIRCULAR     1.5              0          0          0          1          0         
N0325           HORSESHOE    5                0          0          0          1          0         
N0326           HORSESHOE    3.7              0          0          0          1          0         
N0327           HORSESHOE    3.7              0          0          0          1          0         
N0328           HORSESHOE    4.2              0          0          0          1          0         
N0329            CIRCULAR     1.5              0          0          0          1          0         
N0330           CIRCULAR     6                0          0          0          1          0         
L0065            CIRCULAR     1.5              0          0          0          1          0         
N0331           CIRCULAR     3.5              0          0          0          1          0         
N0333           CIRCULAR     3.5              0          0          0          1          0         
N0334            CIRCULAR     3.25             0          0          0          1          0         
N0335            CIRCULAR     5                0          0          0          1          0         
N0336            CIRCULAR     3.75             0          0          0          1          0         
N0337            CIRCULAR     3.5              0          0          0          1          0         
N0338            CIRCULAR     3.5              0          0          0          1          0         
N0339            CIRCULAR     2.5              0          0          0          1          0         
N0340            CIRCULAR     2                0          0          0          1          0         
N0342        FORCE_MAIN   1.167            140        0          0          1          0         
L0066              CIRCULAR     4                0          0          0          1          0         
L0067         CIRCULAR     4.5              0          0          0          1          0         
N0345          HORSESHOE    6                0          0          0          1          0         
N0346          HORSESHOE    6                0          0          0          1          0         
N0347          HORSESHOE    6                0          0          0          1          0         
L0068     FORCE_MAIN   0.125            150        0          0          1          0         
L0069            FORCE_MAIN   2                130        0          0          1          0         
L0070      FORCE_MAIN   1                130        0          0          1          0         
L0071           CIRCULAR     2.5              0          0          0          1          0         
L0072         CIRCULAR     1.25             0          0          0          1          0         
L0073         CIRCULAR     1.25             0          0          0          1          0         
N0349           CIRCULAR     2.25             0          0          0          1          0         
N0352           RECT_CLOSED  5                6          0          0          1          0         
N0353           CIRCULAR     6                0          0          0          1          0         
N0355           CIRCULAR     1.67             0          0          0          1          0         
N0357           CIRCULAR     4                0          0          0          1          0         
L0074        CIRCULAR     5                0          0          0          1          0         
L0075          CIRCULAR     5                0          0          0          1          0         
N0359           HORSESHOE    4                0          0          0          1          0         
N0360           CIRCULAR     1                0          0          0          1          0         
N0361           CIRCULAR     1                0          0          0          1          0         
L0076           CIRCULAR     2                0          0          0          1          0         
N0363           CIRCULAR     1                0          0          0          1          0         
N0364            CIRCULAR     2.5              0          0          0          1          0         
N0365            CIRCULAR     2                0          0          0          1          0         
N0366            CIRCULAR     3                0          0          0          1          0         
N0367          FORCE_MAIN   1                130        0          0          1          0         
L0077      CIRCULAR     1.25             0          0          0          1          0         
N0372            CIRCULAR     6                0          0          0          1          0         
N0373            CIRCULAR     2.5              0          0          0          1          0         
N0374            CIRCULAR     4                0          0          0          1          0         
N0375            CIRCULAR     1.67             0          0          0          1          0         
N0376            CIRCULAR     1.5              0          0          0          1          0         
N0377            CIRCULAR     0.67             0          0          0          1          0         
N0378            CIRCULAR     5.5              0          0          0          1          0         
N0379            CIRCULAR     7.5              0          0          0          1          0         
N0380            CIRCULAR     7.5              0          0          0          1          0         
N0381            CIRCULAR     5.5              0          0          0          1          0         
N0383           CIRCULAR     0.83             0          0          0          1          0         
N0385            CIRCULAR     2                0          0          0          1          0         
L0078          CIRCULAR     2                0          0          0          1          0         
L0079          CIRCULAR     2                0          0          0          1                    
L0080         CIRCULAR     4.5              0          0          0          1          0         
N0391           RECT_CLOSED  4.5              6          0          0          1          0         
N0392           CIRCULAR     1.25             0          0          0          1          0         
N0393           CIRCULAR     0.83             0          0          0          1          0         
N0394           CIRCULAR     2                0          0          0          1          0         
N0395           CIRCULAR     2.5              0          0          0          1          0         
N0396            FILLED_CIRCULAR 1.25          0.15       0          0          1          0         
N0397          CIRCULAR     6                0          0          0          1                    
N0398          CIRCULAR     4                0          0          0          1                    
L0081         CIRCULAR     4                0          0          0          1                    
N0399          CIRCULAR     2                0          0          0          1                    
N0401          CIRCULAR     1.5              0          0          0          1                    
L0082          CIRCULAR     1.5              0          0          0          1                    
N0402            CIRCULAR     2.5              0          0          0          1          0         
N0403            CIRCULAR     2.5              0          0          0          1          0         
N0404            CIRCULAR     2.5              0          0          0          1          0         
N0405            CIRCULAR     2.5              0          0          0          1          0         
N0406           CIRCULAR     1.25             0          0          0          1          0         
N0407           CIRCULAR     1.25             0          0          0          1          0         
N0408           CIRCULAR     2                0          0          0          1          0         
N0409             CIRCULAR     1.5              0          0          0          1          0         
N0410            CIRCULAR     0.833            0          0          0          1          0         
N0411            CIRCULAR     3                0          0          0          1          0         
N0412            CIRCULAR     3                0          0          0          1          0         
L0083            CIRCULAR     3                0          0          0          1          0         
N0414            CIRCULAR     2.5              0          0          0          1          0         
N0415            CIRCULAR     2.5              0          0          0          1          0         
N0416            CIRCULAR     2.5              0          0          0          1          0         
N0417            CIRCULAR     2.5              0          0          0          1          0         
N0418            CIRCULAR     2.5              0          0          0          1          0         
N0419             CIRCULAR     1.5              0          0          0          1          0         
L0084            CIRCULAR     1.5              0          0          0          1          0         
N0420             CIRCULAR     1.5              0          0          0          1          0         
N0421             CIRCULAR     1.5              0          0          0          1          0         
N0422             CIRCULAR     2                0          0          0          1          0         
N0423             CIRCULAR     2                0          0          0          1          0         
N0424             CIRCULAR     2                0          0          0          1          0         
N0425             CIRCULAR     2                0          0          0          1          0         
N0426             CIRCULAR     3                0          0          0          1          0         
L0085            FORCE_MAIN   2                130        0          0          1          0         
N0427            CIRCULAR     1                0          0          0          1          0         
N0428            CIRCULAR     0.67             0          0          0          1          0         
N0430           CIRCULAR     1.25             0          0          0          1          0         
N0431           CIRCULAR     2.25             0          0          0          1          0         
N0432          CIRCULAR     1.667            0          0          0          1          0         
N0433          CIRCULAR     1.667            0          0          0          1          0         
N0434          CIRCULAR     1.667            0          0          0          1          0         
N0435          CIRCULAR     1.667            0          0          0          1          0         
N0436          CIRCULAR     1.667            0          0          0          1          0         
N0437          CIRCULAR     1.667            0          0          0          1          0         
N0438           FILLED_CIRCULAR 1.75          0.3        0          0          1          0         
N0439           CIRCULAR     1.75             0          0          0          1          0         
N0440           CIRCULAR     1.75             0          0          0          1          0         
N0441           CIRCULAR     1.75             0          0          0          1          0         
N0442           CIRCULAR     1.667            0          0          0          1          0         
N0443           CIRCULAR     1.667            0          0          0          1          0         
N0444           CIRCULAR     1.667            0          0          0          1          0         
N0445           CIRCULAR     1.667            0          0          0          1          0         
N0446        CIRCULAR     3                0          0          0          1          0         
L0086             FILLED_CIRCULAR 1.833         0.25       0          0          1          0         
L0087       FILLED_CIRCULAR 1.833         0.25       0          0          1          0         
N0452           CIRCULAR     2                0          0          0          1          0         
N0453           CIRCULAR     4                0          0          0          1          0         
L0088          CIRCULAR     1                0          0          0          1          0         
L0089           CIRCULAR     4                0          0          0          1          0         
L0090           CIRCULAR     4                0          0          0          1          0         
N0455           HORSESHOE    4.33             0          0          0          1          0         
N0456           HORSESHOE    3.5              0          0          0          1          0         
L0091     CIRCULAR     3.5              0          0          0          1          0         
N0457           HORSESHOE    3.5              0          0          0          1          0         
N0458           HORSESHOE    3.5              0          0          0          1          0         
N0459           CIRCULAR     4.5              0          0          0          1          0         
N0460           CIRCULAR     3                0          0          0          2          0         
N0461           CIRCULAR     4.5              0          0          0          1          0         
N0462           CIRCULAR     3.5              0          0          0          1          0         
N0463           CIRCULAR     1.25             0          0          0          1          0         
N0464           CIRCULAR     4                0          0          0          1          0         
N0465           CIRCULAR     3.5              0          0          0          1          0         
N0466           CIRCULAR     3                0          0          0          1          0         
N0468           CIRCULAR     2.25             0          0          0          1          0         
N0469           CIRCULAR     2.5              0          0          0          2          0         
N0471           RECT_CLOSED  4                4          0          0          1          0         
N0472         CIRCULAR     2.5              0          0          0          1          0         
N0474           CIRCULAR     1                0          0          0          1                    
N0475           CIRCULAR     0.833            0          0          0          1                    
N0476           CIRCULAR     0.833            0          0          0          1                    
N0477           CIRCULAR     0.667            0          0          0          1                    
N0478           CIRCULAR     0.667            0          0          0          1                    
N0479           CIRCULAR     0.667            0          0          0          1                    
N0480           CIRCULAR     0.667            0          0          0          1                    
N0481           CIRCULAR     2.5              0          0          0          1          0         
N0482           CIRCULAR     2.5              0          0          0          1          0         
L0092    CIRCULAR     3                0          0          0          16         0         
N0483            CIRCULAR     1.25             0          0          0          1          0         
N0484           CIRCULAR     3.5              0          0          0          1          0         
N0485           CIRCULAR     3                0          0          0          1          0         
N0486           CIRCULAR     3                0          0          0          1          0         
N0487           HORSESHOE    3.75             0          0          0          1          0         
N0488           CIRCULAR     3                0          0          0          1          0         
L0093           CIRCULAR     3                0          0          0          1          0         
N0489           CIRCULAR     3                0          0          0          1          0         
N0490           CIRCULAR     4                0          0          0          1          0         
N0491           CIRCULAR     1.25             0          0          0          1          0         
N0492           HORSESHOE    3.75             0          0          0          1          0         
N0493           MODBASKETHANDLE 2.4           3.45       1.5        0          1          0         
N0494            HORSESHOE    7                0          0          0          1          0         
N0495            HORSESHOE    7                0          0          0          1          0         
N0496            HORSESHOE    7.7              0          0          0          1          0         
N0497            HORSESHOE    7.7              0          0          0          1          0         
N0498            CIRCULAR     1                0          0          0          1          0         
L0094         CIRCULAR     4                0          0          0          1          0         
N0500            CIRCULAR     2                0          0          0          1          0         
N0502            CIRCULAR     1.5              0          0          0          1          0         
N0503            CIRCULAR     1.25             0          0          0          1          0         
N0504            CIRCULAR     0.83             0          0          0          1          0         
N0505            CIRCULAR     2                0          0          0          1          0         
N0506            CIRCULAR     1.5              0          0          0          1          0         
N0507            HORSESHOE    7                0          0          0          1          0         
N0508            HORSESHOE    7                0          0          0          1          0         
N0509            HORSESHOE    7                0          0          0          1          0         
N0510            HORSESHOE    7                0          0          0          1          0         
N0511           CIRCULAR     2                0          0          0          1          0         
L0095            CIRCULAR     1.5              0          0          0          1          0         
N0513            CIRCULAR     1.75             0          0          0          1          0         
N0514            CIRCULAR     0.83             0          0          0          1          0         
N0515            CIRCULAR     1.5              0          0          0          1          0         
N0516             CIRCULAR     3                0          0          0          1          0         
N0517             CIRCULAR     2.5              0          0          0          1          0         
N0518             CIRCULAR     2.5              0          0          0          1          0         
N0519             CIRCULAR     2.5              0          0          0          1          0         
N0520             CIRCULAR     2.5              0          0          0          1          0         
N0522             CIRCULAR     2                0          0          0          1          0         
N0523             CIRCULAR     2                0          0          0          1          0         
N0526             RECT_CLOSED  6                6          0          0          1          0         
L0096          RECT_CLOSED  6                8          0          0          1          0         
N0528           CIRCULAR     4.5              0          0          0          1          0         
N0529           CIRCULAR     5                0          0          0          1          0         
L0097         CIRCULAR     2                0          0          0          1          0         
N0532           CIRCULAR     3                0          0          0          1          0         
N0533           CIRCULAR     2.5              0          0          0          1          0         
N0534           CIRCULAR     2                0          0          0          1          0         
N0535           CIRCULAR     1.25             0          0          0          1          0         
N0536           CIRCULAR     1                0          0          0          1          0         
N0537           CIRCULAR     5.5              0          0          0          1          0         
N0538           CIRCULAR     1.5              0          0          0          1          0         
N0539           CIRCULAR     2.5              0          0          0          1          0         
N0540           CIRCULAR     3                0          0          0          1          0         
N0541           CIRCULAR     2.5              0          0          0          1          0         
N0542           CIRCULAR     0.83             0          0          0          1          0         
N0543           CIRCULAR     2                0          0          0          1          0         
N0544            CIRCULAR     1                0          0          0          1          0         
N0545            CIRCULAR     1.5              0          0          0          2          0         
N0546            HORSESHOE    6.5              0          0          0          1          0         
N0547            HORSESHOE    6                0          0          0          1          0         
N0548            HORSESHOE    6                0          0          0          1          0         
N0551           CIRCULAR     4.5              0          0          0          1          0         
N0552           CIRCULAR     3.5              0          0          0          1          0         
N0553           CIRCULAR     0.67             0          0          0          1          0         
N0554           CIRCULAR     0.67             0          0          0          1          0         
N0555           CIRCULAR     1                0          0          0          1          0         
N0556           CIRCULAR     2                0          0          0          1          0         
N0557           CIRCULAR     3.5              0          0          0          1          0         
L0098              CIRCULAR     2.5              0          0          0          1          0         
L0099              CIRCULAR     2.5              0          0          0          1          0         
L0100              CIRCULAR     2.5              0          0          0          1          0         
L0101              CIRCULAR     2.5              0          0          0          1          0         
L0102              CIRCULAR     2.5              0          0          0          1          0         
L0103              CIRCULAR     2.5              0          0          0          1          0         
L0104              CIRCULAR     2.5              0          0          0          1          0         
L0105              CIRCULAR     2.5              0          0          0          1          0         
N0558           CIRCULAR     0.83             0          0          0          1          0         
N0559            RECT_CLOSED  6                6          0          0          1          0         
N0560            HORSESHOE    7.7              0          0          0          1          0         
N0561            CIRCULAR     4                0          0          0          1          0         
N0562            CIRCULAR     6.5              0          0          0          1          0         
N0563            CIRCULAR     2.5              0          0          0          1          0         
N0564            CIRCULAR     1.5              0          0          0          1          0         
N0565            CIRCULAR     3                0          0          0          1          0         
N0566            HORSESHOE    6.5              0          0          0          1          0         
N0567            FORCE_MAIN   1.17             130        0          0          1          0         
N0577            HORSESHOE    5                0          0          0          1          0         
L0106            CIRCULAR     0.5              0          0          0          1          0         
N0581             CIRCULAR     1.5              0          0          0          1          0         
N0582             CIRCULAR     1.5              0          0          0          1          0         
L0107             CIRCULAR     1.5              0          0          0          1          0         
L0108             CIRCULAR     1.5              0          0          0          1          0         
L0109             CIRCULAR     1.5              0          0          0          1          0         
L0110             CIRCULAR     1.5              0          0          0          1          0         
L0111             CIRCULAR     1.5              0          0          0          1          0         
L0112            CIRCULAR     1.5              0          0          0          1          0         
L0113             CIRCULAR     1.25             0          0          0          1          0         
L0114             CIRCULAR     0.833            0          0          0          1          0         
L0115             CIRCULAR     0.833            0          0          0          1          0         
N0592           CIRCULAR     1.5              0          0          0          1          0         
N0593           CIRCULAR     1.5              0          0          0          1          0         
N0594           CIRCULAR     1.75             0          0          0          1          0         
N0595           CIRCULAR     1.67             0          0          0          1          0         
N0596           CIRCULAR     2.5              0          0          0          1          0         
N0597           CIRCULAR     0.83             0          0          0          1          0         
L0116      CIRCULAR     0.833            0          0          0          1          0         
L0117          FORCE_MAIN   1                130        0          0          1          0         
N0599           CIRCULAR     3.5              0          0          0          1          0         
N0600          FORCE_MAIN   1.67             130        0          0          1          0         
L0118          CIRCULAR     3                0          0          0          1                    
N0601            RECT_CLOSED  7.67             9          0          0          1          0         
L0119           HORSESHOE    7                0          0          0          1          0         
N0603            HORSESHOE    7                0          0          0          1          0         
N0604           CIRCULAR     5.5              0          0          0          1          0         
N0605           HORSESHOE    7.5              0          0          0          1          0         
N0607           HORSESHOE    7                0          0          0          1          0         
L0120         CIRCULAR     2.5              0          0          0          1          0         
L0121         CIRCULAR     4                0          0          0          1          0         
N0609            CIRCULAR     6                0          0          0          1          0         
N0610            CIRCULAR     4.5              0          0          0          1          0         
L0122           RECT_CLOSED  2.32             3.5        0          0          1          0         
N0084            CIRCULAR     1                0          0          0
L0136           RECT_CLOSED  7                8          0          0
L0137          CIRCULAR     1                0          0          0
L0138          CIRCULAR     1                0          0          0
L0139          CIRCULAR     1                0          0          0
L0140          CIRCULAR     1                0          0          0
L0141          RECT_CLOSED  0.67             1.67       0          0
L0142          CIRCULAR     1                0          0          0
L0143        RECT_CLOSED  2                3          0          0
L0144      CIRCULAR     3                0          0          0
L0145        RECT_CLOSED  2                0.17       0          0
L0146        CIRCULAR     1                0          0          0
L0147      CIRCULAR     3.3              0          0          0
L0148           CIRCULAR     2.5              0          0          0
L0149       CIRCULAR     1.25             0          0          0
L0150         CIRCULAR     1                0          0          0
L0151        CIRCULAR     1                0          0          0
L0152         CIRCULAR     1                0          0          0
L0153        CIRCULAR     1                0          0          0
N0454        CIRCULAR     0.5              0          0          0
L0154      RECT_CLOSED  7                7.667      0          0
L0155    RECT_CLOSED  3                10         0          0
L0156              RECT_OPEN    4.53             4          0          0         
L0157           RECT_OPEN    4.45             7.6        0          0         
L0158          RECT_OPEN    6.26             4.5        0          0         
L0159          RECT_OPEN    4.16             6          0          0         
L0160        RECT_OPEN    4                2.3        0          0         
L0161          RECT_OPEN    3.74             4          0          0         
L0162           RECT_OPEN    6.05             2          0          0         
L0163          RECT_OPEN    6.7              2.417      0          0         
L0164          RECT_OPEN    5.1              2.5        0          0         
L0165          RECT_OPEN    2                1.9        0          0         
L0166          RECT_OPEN    5.35             3          0          0         
L0167          RECT_OPEN    3.5              6          0          0         
L0168          RECT_OPEN    3.6              15         0          0         
L0169          RECT_OPEN    7                5          0          0         
L0170          RECT_OPEN    5.84             4          0          0         
L0171          RECT_OPEN    3.4              6.21       0          0         
L0172          RECT_OPEN    7.15             2.2        0          0         
L0173          RECT_OPEN    5.84             3          0          0         
L0174          RECT_OPEN    3.52             3.5        0          0         
L0175          RECT_OPEN    7.08             4          0          0         
L0176          RECT_OPEN    8.67             4          0          0         
L0177          RECT_OPEN    10.23            5          0          0         
L0178          RECT_OPEN    9.9              4          0          0         
L0179          RECT_OPEN    10.53            5          0          0         
L0180          RECT_OPEN    9.25             4          0          0         
L0181          RECT_OPEN    6.05             4.5        0          0         
L0182          RECT_OPEN    6.3              2          0          0         
L0183          RECT_OPEN    1.5              2          0          0         
L0184          RECT_OPEN    3.8              4          0          0         
L0185          RECT_OPEN    6.5              6          0          0         
L0186          RECT_OPEN    4.5              4          0          0         
L0187          RECT_OPEN    6.97             5          0          0         
L0188          RECT_OPEN    7.5              6          0          0         
L0189          RECT_OPEN    6.08             6          0          0         
L0190          RECT_OPEN    5.7              4.5        0          0         
L0191          RECT_OPEN    2.05             6.5        0          0         
L0192          RECT_OPEN    5.35             4          0          0         
L0193          RECT_OPEN    0.77             4          0          0         
L0194           RECT_OPEN    3.6              4          0          0         
L0195          RECT_OPEN    5                4          0          0         
L0196          RECT_OPEN    10.6             4          0          0         
L0197           RECT_OPEN    6.55             4          0          0         
L0198           RECT_OPEN    2.5              4          0          0         
L0199           RECT_OPEN    3.4              9          0          0         
L0200           RECT_OPEN    1.5              6.5        0          0         
L0201           RECT_OPEN    8.21             6          0          0         
L0202           RECT_OPEN    3                3          0          0         
L0203           RECT_OPEN    6.15             1.5        0          0         
L0204           RECT_OPEN    7.35             3.5        0          0         
L0205           RECT_OPEN    2.67             4          0          0         
L0206           RECT_OPEN    3.79             3.5        0          0         
L0207           RECT_OPEN    8.7              4.5        0          0         
L0208           RECT_OPEN    3.1              3.5        0          0         
L0209  RECT_OPEN    8.6              3          0          0         
L0210         RECT_OPEN    1.5              3.33       0          0         
L0211         RECT_OPEN    1                4          0          0         
L0212 RECT_OPEN   2.82             4          0          0         
L0213 RECT_OPEN    8.78             4          0          0         
L0214    RECT_OPEN    3.29             6          0          0         
L0215    RECT_OPEN    3.29             6.5        0          0         
L0216  RECT_OPEN    7.5              4          0          0         
L0217      RECT_OPEN    1.83             9.5        0          0         
L0218          RECT_OPEN    6.28             3.5        0          0         
L0219  RECT_OPEN    6.4              4          0          0         
L0220          RECT_OPEN    12.27            9          0          0         
L0221   RECT_OPEN    9.38             1.75       0          0         

[LOSSES]
2674             0          0          0          YES        0
4246             0          0          0          YES        0
L0019           0.5        0.5        0          NO         0
4247             0          0          0          YES        0
N0106            0          0          0          YES        0
L0029          0          0          0          YES        0
6722             0          0          0          YES        0
L0041             0.17       0.24       0          NO         0
N0263           0          0          0          YES        0
L0074        0          0          0          YES        0
L0075          0          0          0          YES        0
N0365            0          0          0          YES        0
L0082          0          0          0          YES        0
L0092    0          7          0          YES        0
L0096          1          1          0          NO         0
L0118          0          0          0          YES        0

[CONTROLS]
RULE BELLGATE
IF NODE N0568 DEPTH > 6.5
THEN ORIFICE L0144 SETTING = 0.100000
PRIORITY 0.000000
RULE BELLGATE2
IF NODE N0568 DEPTH < 5.000000
OR PUMP L0123 FLOW < 18.000000
THEN ORIFICE L0144 SETTING = 1.000000
PRIORITY 1.000000
RULE N0291
IF NODE N0649 DEPTH > 3.000000
AND NODE N0649 DEPTH <> 11.000000
THEN ORIFICE L0147 SETTING = PID 1.000000	0.000000	0.000000
PRIORITY 0.000000
RULE N0341
IF NODE 6635 DEPTH > 9.000000
THEN ORIFICE L0148 SETTING = 1.000000
PRIORITY 0.000000
RULE HYDROBEND
IF NODE N0214 DEPTH <> 1.890000
THEN WEIR L0157 SETTING = PID -0.500000	0.500000	0.030000
PRIORITY 0.000000
RULE PONDINGAREA_FLOOD
IF NODE N0654 DEPTH <= 1.570000
THEN ORIFICE L0136 SETTING = 0.000000
ELSE ORIFICE L0136 SETTING = 1.000000
PRIORITY 0.000000
RULE PONDINGAREA_GATE
IF LINK L0136 FLOW > 0.100000
THEN ORIFICE L0136 SETTING = 1.000000
PRIORITY 1.000000
RULE PONDINGAREA_RETURN
IF LINK L0092 FLOW > 0.100000
THEN ORIFICE L0155 SETTING = 0.000000
ELSE ORIFICE L0155 SETTING = 1.000000
PRIORITY 0.000000
RULE C0002
IF LINK N0605 FLOW <> 112
THEN ORIFICE L0154 SETTING = PID 0.1 0.5 0

[POLLUTANTS]
POL0001      MG/L   0          100        0          0          NO         *                0.0        0          0         
POL0002         MG/L   100        0          0          0          NO         *                0.0        0          0         
POL0003           MG/L   0          0          0          0          NO         *                0.0        100        0         
POL0004             MG/L   0          0          0          0          NO         *                0.0        0          0         

[LOADINGS]

[INFLOWS]
N0001            Flow             ""               FLOW     1.0      1        0.1              
N0014            Flow             ""               FLOW     1.0      1        0.1              
N0018            Flow             ""               FLOW     1.0      1        0.1              
N0033            Flow             ""               FLOW     1.0      1        0.1              
6694             Flow             ""               FLOW     1.0      1        0.1              
N0245           Flow             ""               FLOW     1.0      1        0.1              
N0314           Flow             ""               FLOW     1.0      1        0.1              
N0321           Flow             ""               FLOW     1.0      1        0.1              
N0409             Flow             ""               FLOW     1.0      1        0.25             
N0416            Flow             ""               FLOW     1.0      1        0.3              
N0429         Flow             ""               FLOW     1.0      1        0.01             
N0437          Flow             ""               FLOW     1.0      1        0.25             
N0443           Flow             ""               FLOW     1.0      1        0.25             
N0498            Flow             ""               FLOW     1.0      1        0.1              
N0611       POL0004             ""               CONCEN   1.0      1.0      100              
N0612          POL0004             ""               CONCEN   1.0      1.0      100              
N0614      POL0004             ""               CONCEN   1.0      1.0      100              
N0615        POL0004             ""               CONCEN   1.0      1.0      100              
N0616          POL0004             ""               CONCEN   1.0      1.0      100              
N0618          POL0004             ""               CONCEN   1.0      1.0      100              
N0620          POL0004             ""               CONCEN   1.0      1.0      100              
N0621          POL0004             ""               CONCEN   1.0      1.0      100              
N0622          POL0004             ""               CONCEN   1.0      1.0      100              
N0627          POL0004             ""               CONCEN   1.0      1.0      100              
N0629          POL0004             ""               CONCEN   1.0      1.0      100              
N0646      POL0004             ""               CONCEN   1.0      1.0      100              

[DWF]
N0001            Flow             0.12       "P0020" "" "" ""
N0002            Flow             0.001131   "P0009" "" "" ""
N0003            Flow             0.001174   "P0009" "" "" ""
N0004            Flow             0.002817   "P0009" "" "" ""
N0010            Flow             0.000512   "P0009" "" "" ""
N0011            Flow             0.001174   "P0009" "" "" ""
N0014            Flow             0.022      "P0020" "" "" ""
N0018            Flow             0.014      "P0020" "" "" ""
N0020            Flow             0.001942   "P0009" "" "" ""
N0021            Flow             0.011739   "P0009" "" "" ""
N0025            Flow             0.001644   "P0009" "" "" ""
N0026            Flow             0.002455   "P0009" "" "" ""
N0033            Flow             0.011      "P0020" "" "" ""
N0036            Flow             0.02       "P0020" "" "" ""
N0043            Flow             0.011739   "P0009" "" "" ""
N0050             Flow             0.004802   "P0009" "" "" ""
N0051            Flow             0.009188   "P0020" "" "" ""
2399             FLOW             0.002      "P0022" "" "" ""
N0055            FLOW             0.008      "P0022" "" "" ""
2493             Flow             0.08       "P0033" "" "" ""
N0058            Flow             0.4        "P0006" "" "" ""
2633             Flow             0.042      "P0031" "" "" ""
2662             Flow             0.003311   "P0020" "" "" ""
2701             Flow             0.036      "P0009" "" "" ""
2716             Flow             0.1        "P0024" "" "" ""
2750             Flow             0.011439   "P0020" "" "" ""
2882             Flow             0.023      "P0032" "" "" ""
2913             Flow             0.011      "P0032" "" "" ""
2959             Flow             0.01       "P0032" "" "" ""
2971             Flow             0.043      "P0022" "" "" ""
3063             Flow             0.14       "P0030" "" "" ""
N0062            Flow             0.182      "P0007" "" "" ""
3138             Flow             0.153268   "P0022" "" "" ""
3252             Flow             0.000366   "P0030" "" "" ""
3359             Flow             0.037      "P0024" "" "" ""
3488             Flow             0.017      "P0022" "" "" ""
3499             Flow             0.077402   "P0022" "" "" ""
3568             Flow             0.076      "P0022" "" "" ""
3573             Flow             0.022      "P0011" "" "" ""
3865             Flow             0.1        "P0004" "" "" ""
3918             Flow             0.028      "P0011" "" "" ""
3926             Flow             0.072939   "P0012" "" "" ""
3928             Flow             0.013      "P0011" "" "" ""
N0068            Flow             0.003      "P0009" "" "" ""
3992             Flow             0.3        "P0010" "" "" ""
4032             Flow             0.2        "P0004" "" "" ""
N0078            FLOW             0.883137   "P0009" "" "" ""
4049             Flow             0.195      "P0030" "" "" ""
N0081            Flow             0.06       "P0009" "" "" ""
N0083            Flow             0.081      "P0031" "" "" ""
4136             Flow             0.3        "P0021" "" "" ""
4144             Flow             0.19       "P0021" "" "" ""
4172             Flow             0.000451   "P0022" "" "" ""
4175             Flow             0.026      "P0013" "" "" ""
4198             Flow             0.18       "P0013" "" "" ""
4251             Flow             0.09       "P0014" "" "" ""
4533             Flow             0.058      "P0009" "" "" ""
4546             Flow             0.08       "P0014" "" "" ""
4581             Flow             0.01       "P0014" "" "" ""
4632             Flow             0.1        "P0015" "" "" ""
4633             Flow             0.15       "P0026" "" "" ""
4642             Flow             0.216515   "P0027" "" "" ""
4693             Flow             0.094498   "P0027" "" "" ""
N0091            Flow             0.115      "P0034" "" "" ""
4723             Flow             0.5        "P0023" "" "" ""
4727             Flow             0.13       "P0018" "" "" ""
4744             Flow             0.5        "P0023" "" "" ""
4782             Flow             0.01131    "P0027" "" "" ""
4808             Flow             0.043      "P0009" "" "" ""
4845             Flow             0.021      "P0013" "" "" ""
4939             Flow             0.19       "P0017" "" "" ""
4970             Flow             0.11       "P0017" "" "" ""
5091             Flow             0.01       "P0017" "" "" ""
5092             Flow             0.17       "P0017" "" "" ""
5104             Flow             0.7        "P0003" "" "" ""
5126             Flow             0.2        "P0003" "" "" ""
N0098            Flow             0.011      "P0032" "" "" ""
N0104             Flow             0.8        "P0001" "P0035" "" ""
5290             Flow             0.030084   "P0016" "" "" ""
N0107            Flow             0.0156     "P0032" "" "" ""
5432             Flow             0.037      "P0019" "" "" ""
N0112            Flow             0.034      "P0032" "" "" ""
5435             Flow             0.02       "P0017" "" "" ""
5695             Flow             0.2        "P0028" "" "" ""
6620             Flow             0.007181   "P0020" "" "" ""
6633             Flow             0.001      "P0020" "" "" ""
6635             Flow             0.002111   "P0020" "" "" ""
6694             Flow             0.01       "P0020" "" "" ""
6708             Flow             0.001462   "P0009" "" "" ""
6725             Flow             0.1        "P0006" "" "" ""
6898             Flow             0.182      "P0007" "" "" ""
N0126           Flow             0.000879   "P0022" "" "" ""
N0129            FLOW             0.016133   "P0022" "" "" ""
N0134            Flow             0.05       "P0002" "" "" ""
N0141            Flow             0.089      "P0002" "" "" ""
N0155           Flow             0.1        "P0008" "" "" ""
N0170            Flow             0.2        "P0033" "" "" ""
N0172            Flow             0.3        "P0033" "" "" ""
N0179            Flow             0.1        "P0033" "" "" ""
N0188           Flow             0.04       "P0013" "" "" ""
N0201           Flow             0.001223   "P0031" "" "" ""
N0204            Flow             0.079      "P0002" "" "" ""
N0208            Flow             0.08       "P0002" "" "" ""
N0217             Flow             0.005211   "P0024" "" "" ""
N0233           Flow             0.13       "P0034" "" "" ""
N0261           Flow             0.01       "P0026" "" "" ""
N0265           Flow             0.25       "P0018" "" "" ""
N0289           Flow             0.00639    "P0031" "" "" ""
N0300           Flow             0.08       "P0024" "" "" ""
N0315           Flow             0.006782   "P0031" "" "" ""
N0321           Flow             0.049      "P0020" "" "" ""
N0339            Flow             0.001055   "P0020" "" "" ""
N0345          Flow             0.046578   "P0022" "" "" ""
N0355           Flow             0.000961   "P0030" "" "" ""
N0366            Flow             0.033      "P0009" "" "" ""
N0385            Flow             0.019      "P0032" "" "" ""
N0389          Flow             0.62       "P0019" "" "" ""
N0405            Flow             0.031      "P0002" "" "" ""
N0406           Flow             0.002      "P0011" "" "" ""
N0409             Flow             0.059      "P0002" "" "" ""
N0418            Flow             0.05       "P0002" "" "" ""
N0419             Flow             0.05       "P0002" "" "" ""
N0423             Flow             0.1        "P0002" "" "" ""
N0425             Flow             0.05       "P0002" "" "" ""
N0437          Flow             0.35       "P0005" "" "" ""
N0447           Flow             0.07       "P0019" "" "" ""
N0453           Flow             0.042      "P0031" "" "" ""
N0455           Flow             0.1        "P0025" "" "" ""
N0485           Flow             0.03       "P0011" "" "" ""
N0488           Flow             0.2        "P0021" "" "" ""
N0514            Flow             0.00178    "P0020" "" "" ""
N0516             Flow             0.022      "P0016" "" "" ""
N0518             Flow             0.114732   "P0029" "" "" ""
N0521             Flow             0.019      "P0029" "" "" ""
N0529           Flow             0.001      "P0009" "" "" ""
N0536           Flow             0.002      "P0011" "" "" ""
N0538           Flow             0.11       "P0009" "" "" ""
N0543           Flow             0.016      "P0022" "" "" ""
N0556           Flow             0.022498   "P0022" "" "" ""
N0564            Flow             0.088      "P0013" "" "" ""
N0570          Flow             0.054      "P0002" "" "" ""
N0582             Flow             0.17       "P0002" "" "" ""
N0594           Flow             0.13       "P0009" "" "" ""
N0601            Flow             0.000576   "P0009" "" "" ""
N0603            Flow             0.002796   "P0009" "" "" ""
N0605           Flow             0.020277   "P0009" "" "" ""
N0611       POL0003           100        "" "" "" ""

[CURVES]
C0001 CONTROL    0          1         
C0001            7.8        1         
C0001            7.9        1         
C0001            8          0.5       
C0001            27         0.01      

C0002         CONTROL    0          1         
C0002                    24         0.55      
C0002                    55         0.1004    
C0002                    108        0.0602    
C0002                    120        0.06      

C0003       Pump4      0          0         
C0003                  13         30.74     

L0124         Pump4      0          0         
L0124                    13         4.456     
L0124                    24         8.912     

L0125        Pump4      0          0         
L0125                   7          16.9      

L0126         Pump4      0.5        0         
L0126                    4          3         
L0126                    14         5         
L0126                    18         5.9       

C0004         Pump4      0          0         
C0004                    7          5.8       

L0128        Pump4      0.5        0         
L0128                   8          12        

C0005    Pump2      50         0.032     

C0006     Pump4      0          0         
C0006                7.25       6         

L0133       Pump4      0          0         
L0133                  5.5        4.5       

L0134          Pump4      0.5        0         
L0134                     11         6         

L0135        Pump4      0.5        0         
L0135                   6.5        2.8       

L0041             SHAPE      0          0.8       
L0041                        0.8        0.8       
L0041                        1          0.4       

C0007  Shape      0.025641026 0.436     
C0007             0.038461538 0.508     
C0007             0.051282051 0.58      
C0007             0.064102564 0.64      
C0007             0.076923077 0.686     
C0007             0.08974359 0.728     
C0007             0.102564103 0.742     
C0007             0.115384615 0.756     
C0007             0.128205128 0.764     
C0007             0.141025641 0.774     
C0007             0.153846154 0.782     
C0007             0.166666667 0.79      
C0007             0.179487179 0.796     
C0007             0.192307692 0.804     
C0007             0.205128205 0.81      
C0007             0.217948718 0.816     
C0007             0.230769231 0.82      
C0007             0.243589744 0.824     
C0007             0.256410256 0.828     
C0007             0.269230769 0.83      
C0007             0.282051282 0.83      
C0007             0.294871795 0.834     
C0007             0.307692308 0.836     
C0007             0.320512821 0.838     
C0007             0.333333333 0.838     
C0007             0.346153846 0.84      
C0007             0.358974359 0.84      
C0007             0.371794872 0.84      
C0007             0.384615385 0.84      
C0007             0.397435897 0.84      
C0007             0.41025641 0.84      
C0007             0.423076923 0.84      
C0007             0.435897436 0.84      
C0007             0.448717949 0.84      
C0007             0.461538462 0.84      
C0007             0.474358974 0.84      
C0007             0.487179487 0.84      
C0007             0.5        0.84      
C0007             0.512820513 0.84      
C0007             0.525641026 0.838     
C0007             0.538461538 0.836     
C0007             0.551282051 0.832     
C0007             0.564102564 0.828     
C0007             0.576923077 0.822     
C0007             0.58974359 0.818     
C0007             0.602564103 0.812     
C0007             0.615384615 0.808     
C0007             0.628205128 0.8       
C0007             0.641025641 0.796     
C0007             0.653846154 0.788     
C0007             0.666666667 0.782     
C0007             0.679487179 0.774     
C0007             0.692307692 0.76      
C0007             0.705128205 0.748     
C0007             0.717948718 0.734     
C0007             0.730769231 0.72      
C0007             0.743589744 0.704     
C0007             0.756410256 0.69      
C0007             0.769230769 0.676     
C0007             0.782051282 0.66      
C0007             0.794871795 0.648     
C0007             0.807692308 0.63      
C0007             0.820512821 0.612     
C0007             0.833333333 0.594     
C0007             0.846153846 0.572     
C0007             0.858974359 0.552     
C0007             0.871794872 0.528     
C0007             0.884615385 0.504     
C0007             0.897435897 0.48      
C0007             0.91025641 0.452     
C0007             0.923076923 0.416     
C0007             0.935897436 0.378     
C0007             0.948717949 0.344     
C0007             0.961538462 0.306     
C0007             0.974358974 0.26      
C0007             0.987179487 0.194     
C0007             1          0.038     

C0008   Shape      0          20        
C0008              13         20        

C0009      SHAPE      0          11        
C0009                 8          11        

N0647      STORAGE    0          15        
N0647                 2          297       
N0647                 11         726       
N0647                 18         726       

N0648      STORAGE    0          73.5      
N0648                 3.5        245       
N0648                 3.75       251       
N0648                 7.75       251       
N0648                 8          174.5     
N0648                 12         174.5     
N0648                 15         174.5     
N0648                 15.5       35        
N0648                 28         35        

C0010      STORAGE    0          50        
C0010                 4          234       
C0010                 8.5        748       
C0010                 15         750       

C0011       STORAGE    0          50        
C0011                  3          176       
C0011                  11         480       
C0011                  13.5       481       

C0012   STORAGE    0          249       
C0012              10         357       

C0013  STORAGE    0          400       
C0013             13         524.44    

C0014 STORAGE    0          0         
C0014            0.1        641       
C0014            0.35       5900      
C0014            0.6        172804    
C0014            0.85       201388    
C0014            1.1        221328    
C0014            1.35       241811.68 
C0014            1.6        258901.37 
C0014            1.85       277048.05 
C0014            2.1        291964.73 
C0014            2.35       306039.42 
C0014            2.6        315262.1  
C0014            2.85       325015.78 
C0014            3.1        332886.47 
C0014            3.35       339163.15 
C0014            3.6        345432.83 
C0014            3.85       348980.52 
C0014            4.1        350658    

C0015     STORAGE    0          0         
C0015                7.5        800       

C0016      Storage    0          71.5      
C0016                 7          595       
C0016                 10.5       595       
C0016                 16         595       

C0017     STORAGE    0          120       
C0017                11         184       

[TIMESERIES]
TS0001       01/07/1975 00:00 0.0
TS0001       01/09/1975 00:00 0.0

[PATTERNS]
P0001      HOURLY     0.560000 0.530000 0.510000 0.500000 0.500000 0.610000
P0001                 0.990000 1.290000 1.300000 1.320000 1.350000 1.380000
P0001                 1.240000 1.330000 1.420000 1.430000 1.530000 1.250000
P0001                 1.020000 0.970000 0.860000 0.780000 0.700000 0.630000
P0002      HOURLY     0.730000 0.600000 0.490000 0.430000 0.370000 0.410000
P0002                 0.610000 1.000000 1.230000 1.280000 1.290000 1.250000
P0002                 1.280000 1.250000 1.250000 1.200000 1.210000 1.230000
P0002                 1.270000 1.290000 1.260000 1.190000 1.010000 0.860000
P0003       HOURLY     0.870000 0.870000 0.740000 0.740000 0.650000 0.780000
P0003                  1.110000 1.220000 1.080000 1.100000 1.040000 0.980000
P0003                  1.030000 1.030000 0.970000 1.090000 1.170000 1.150000
P0003                  1.200000 1.250000 1.090000 1.010000 0.960000 0.870000
P0004       HOURLY     0.840000 0.810000 0.730000 0.730000 0.710000 0.820000
P0004                  1.050000 1.170000 1.150000 1.100000 1.080000 1.070000
P0004                  1.090000 1.090000 1.070000 1.080000 1.060000 1.050000
P0004                  1.110000 1.160000 1.120000 1.080000 1.020000 0.840000
P0005       HOURLY     0.540000 0.440000 0.370000 0.340000 0.300000 0.340000
P0005                  0.500000 0.920000 0.990000 1.150000 1.430000 1.210000
P0005                  1.300000 1.210000 1.200000 1.070000 1.190000 1.230000
P0005                  1.360000 1.080000 1.220000 1.050000 0.870000 0.700000
P0006        HOURLY     0.880000 0.860000 0.800000 0.790000 0.760000 0.850000
P0006                   1.000000 1.000000 1.110000 1.110000 1.100000 1.110000
P0006                   1.120000 1.100000 1.070000 1.050000 1.060000 1.090000
P0006                   1.100000 1.100000 1.100000 1.050000 0.990000 0.810000
P0007       HOURLY     0.890000 0.850000 0.790000 0.780000 0.740000 0.830000
P0007                  0.980000 0.950000 1.120000 1.120000 1.100000 1.120000
P0007                  1.130000 1.120000 1.070000 1.050000 1.050000 1.090000
P0007                  1.100000 1.140000 1.120000 1.060000 1.020000 0.800000
P0008  HOURLY     0.240000 0.040000 0.020000 0.010000 0.000000 0.180000
P0008             0.610000 1.150000 1.400000 1.440000 1.230000 1.350000
P0008             1.340000 1.270000 1.370000 1.250000 1.450000 1.340000
P0008             1.420000 1.910000 1.610000 1.500000 1.030000 0.530000
P0009 HOURLY     0.760000 0.600000 0.530000 0.430000 0.400000 0.370000
P0009            0.490000 0.830000 1.160000 1.350000 1.450000 1.490000
P0009            1.390000 1.320000 1.220000 1.190000 1.130000 1.050000
P0009            1.170000 1.210000 1.250000 1.120000 1.100000 0.970000
P0010 HOURLY     0.420000 0.550000 0.400000 0.310000 0.230000 0.690000
P0010            1.130000 1.650000 1.380000 1.430000 1.600000 1.600000
P0010            1.180000 0.910000 0.930000 0.870000 0.730000 0.970000
P0010            1.520000 1.160000 1.050000 0.920000 1.310000 1.050000
P0011 HOURLY     0.630000 0.460000 0.410000 0.420000 0.380000 0.460000
P0011            0.680000 1.130000 1.310000 1.410000 1.430000 1.470000
P0011            1.320000 1.280000 1.250000 1.170000 1.080000 1.040000
P0011            1.240000 1.200000 1.150000 1.040000 1.120000 0.930000
P0012 HOURLY     0.820000 0.830000 0.420000 0.270000 0.540000 0.660000
P0012            1.220000 1.260000 1.350000 1.540000 1.470000 1.270000
P0012            0.790000 0.660000 0.680000 0.630000 0.670000 0.860000
P0012            1.510000 1.040000 1.120000 0.810000 2.150000 1.430000
P0013 HOURLY     0.780000 0.670000 0.580000 0.560000 0.630000 0.780000
P0013            0.950000 0.930000 0.940000 1.000000 0.930000 0.930000
P0013            0.900000 0.940000 0.940000 0.980000 1.020000 1.020000
P0013            1.050000 1.020000 1.060000 1.000000 0.900000 0.840000
P0014 HOURLY     0.210000 0.000000 0.020000 0.000000 0.000000 0.170000
P0014            0.580000 0.950000 1.060000 1.290000 1.390000 1.390000
P0014            1.420000 1.610000 1.390000 1.640000 1.670000 1.750000
P0014            1.820000 1.570000 1.390000 1.460000 0.970000 0.430000
P0015 HOURLY     0.210000 0.040000 0.020000 0.010000 0.000000 0.170000
P0015            0.640000 0.940000 1.340000 1.990000 1.920000 1.950000
P0015            1.650000 1.900000 1.580000 1.900000 1.880000 2.260000
P0015            2.110000 1.840000 1.210000 0.960000 0.590000 0.410000
P0016 HOURLY     0.910000 0.860000 0.810000 0.770000 0.760000 0.810000
P0016            0.840000 1.050000 1.130000 1.140000 1.130000 1.080000
P0016            1.080000 1.120000 1.100000 1.070000 0.960000 0.920000
P0016            1.060000 1.100000 1.100000 1.050000 1.100000 1.050000
P0017 HOURLY     0.560000 0.470000 0.490000 0.590000 0.480000 0.660000
P0017            0.890000 1.270000 1.370000 1.470000 1.480000 1.460000
P0017            1.300000 1.110000 1.130000 1.000000 0.980000 1.020000
P0017            1.220000 1.210000 1.060000 0.940000 1.020000 0.800000
P0018 HOURLY     0.430000 0.600000 0.410000 0.330000 0.240000 0.940000
P0018            1.400000 1.530000 1.580000 1.570000 1.820000 1.740000
P0018            1.160000 0.670000 0.420000 0.650000 0.590000 0.880000
P0018            1.580000 1.150000 0.940000 0.700000 1.520000 1.150000
P0019 HOURLY     0.900000 0.890000 0.890000 0.890000 0.840000 0.970000
P0019            1.030000 1.090000 1.100000 1.080000 1.120000 1.180000
P0019            1.020000 0.950000 0.960000 0.930000 0.910000 0.920000
P0019            1.200000 1.070000 0.990000 0.950000 1.100000 1.030000
P0020 HOURLY     0.400000 0.460000 0.400000 0.620000 0.560000 0.640000
P0020            1.010000 1.250000 1.410000 1.440000 1.540000 1.390000
P0020            1.110000 0.970000 0.870000 0.990000 0.970000 1.050000
P0020            1.450000 1.390000 1.290000 1.120000 0.970000 0.720000
P0021 HOURLY     0.800000 0.700000 0.650000 0.630000 0.640000 0.770000
P0021            1.250000 1.370000 1.340000 1.320000 1.340000 1.320000
P0021            1.370000 1.380000 1.360000 1.350000 1.390000 1.520000
P0021            1.460000 1.480000 1.390000 1.250000 1.230000 0.750000
P0022 HOURLY     0.810000 0.600000 0.450000 0.330000 0.250000 0.250000
P0022            0.420000 0.800000 1.120000 1.320000 1.430000 1.510000
P0022            1.450000 1.380000 1.310000 1.220000 1.180000 1.130000
P0022            1.160000 1.220000 1.250000 1.220000 1.180000 1.030000
P0023 HOURLY     0.830000 0.760000 0.650000 0.640000 0.710000 0.770000
P0023            0.900000 0.898396 1.010000 1.026738 1.110000 1.120000
P0023            1.090000 1.055615 1.030000 1.050000 1.080000 1.120000
P0023            1.190000 1.220000 1.160000 1.110000 0.990000 0.850000
P0024 HOURLY     0.680000 0.480000 0.290000 0.220000 0.230000 0.310000
P0024            0.540000 1.020000 1.310000 1.500000 1.640000 1.480000
P0024            1.530000 1.570000 1.210000 1.010000 1.030000 1.140000
P0024            1.150000 1.340000 1.330000 1.250000 0.950000 0.780000
P0025 HOURLY     0.750000 0.500000 0.430000 0.360000 0.230000 0.260000
P0025            0.420000 0.870000 1.160000 1.390000 1.470000 1.480000
P0025            1.470000 1.390000 1.290000 1.270000 1.210000 1.160000
P0025            1.240000 1.270000 1.310000 1.150000 1.080000 0.860000
P0026 HOURLY     0.570000 0.380000 0.290000 0.260000 0.270000 0.390000
P0026            0.650000 1.070000 1.520000 1.430000 1.530000 1.620000
P0026            1.380000 1.270000 1.180000 1.080000 1.120000 1.170000
P0026            1.240000 1.340000 1.310000 1.190000 1.020000 0.730000
P0027 HOURLY     0.330000 0.160000 0.110000 0.120000 0.100000 0.160000
P0027            0.350000 0.940000 1.670000 1.760000 2.040000 2.120000
P0027            2.110000 2.110000 1.800000 1.550000 1.130000 0.980000
P0027            0.960000 0.820000 0.940000 0.790000 0.510000 0.430000
P0028 HOURLY     1.130000 0.690000 0.370000 0.230000 0.270000 0.140000
P0028            0.240000 0.300000 0.620000 0.620000 0.800000 1.190000
P0028            1.400000 1.390000 1.610000 1.500000 1.410000 1.340000
P0028            1.380000 1.360000 1.370000 1.630000 1.600000 1.410000
P0029 HOURLY     0.420000 0.390000 0.280000 0.250000 0.370000 0.470000
P0029            0.570000 0.850000 1.410000 1.660000 1.600000 1.640000
P0029            1.510000 1.370000 1.250000 1.080000 1.180000 1.090000
P0029            1.150000 1.190000 1.270000 1.240000 1.030000 0.710000
P0030 HOURLY     0.580000 0.450000 0.340000 0.330000 0.440000 0.550000
P0030            0.810000 1.230000 1.560000 1.590000 1.640000 1.610000
P0030            1.480000 1.270000 1.140000 1.070000 0.970000 0.980000
P0030            0.940000 1.020000 1.090000 1.020000 0.970000 0.910000
P0031 HOURLY     0.690000 1.350000 1.040000 0.820000 0.420000 0.540000
P0031            1.380000 1.530000 1.600000 1.480000 1.710000 1.480000
P0031            1.140000 0.860000 0.760000 0.600000 0.440000 0.420000
P0031            0.810000 1.540000 1.530000 0.640000 0.570000 0.650000
P0032 HOURLY     0.800000 0.580000 0.460000 0.370000 0.280000 0.300000
P0032            0.530000 0.920000 1.230000 1.370000 1.470000 1.530000
P0032            1.490000 1.350000 1.270000 1.170000 1.130000 1.080000
P0032            1.100000 1.120000 1.110000 1.110000 1.170000 1.070000
P0033 HOURLY     0.600000 0.500000 0.450000 0.450000 0.560000 0.880000
P0033            1.430000 1.500000 1.280000 1.190000 1.180000 1.090000
P0033            1.110000 1.050000 1.010000 0.970000 1.110000 1.280000
P0033            1.370000 1.540000 1.360000 1.090000 0.860000 0.700000
P0034 HOURLY     0.780000 0.570000 0.430000 0.320000 0.290000 0.400000
P0034            0.590000 0.910000 1.120000 1.370000 1.440000 1.480000
P0034            1.280000 1.200000 1.040000 0.940000 0.940000 0.940000
P0034            1.330000 1.440000 1.350000 1.160000 1.430000 1.240000
P0035      WEEKEND    0.196135 0.188376 0.223962 0.219437 0.208965 0.179434
P0035                 0.163548 0.150043 0.190479 0.218379 0.256370 0.213424
P0035                 0.224275 0.230225 0.224337 0.214153 0.201893 0.199696
P0035                 0.196670 0.187620 0.181173 0.160717 0.191468 0.179224

[REPORT]
INPUT      NO
CONTROLS   NO
SUBCATCHMENTS ALL
NODES N0076 5475 N0356 4746
NODES 2880 N0150 N0147 N0611
NODES N0612 N0613 N0614 N0615
NODES N0616 N0617 N0618 N0619
NODES N0620 N0621 N0622 N0623
NODES N0624 N0625 N0626 N0627
NODES N0628 N0629 N0630 N0631
NODES N0632 N0633 N0634 N0635
NODES N0636 N0637 N0638 N0639
NODES N0640 N0641 N0642 N0643
NODES N0644 N0645 N0646
LINKS L0096 N0219 4247 N0277
LINKS 6722 L0136 N0041 6709
LINKS N0031 N0220 N0247 L0002
LINKS N0340 6698 6617 L0071
LINKS L0094 N0288 N0263 N0357
LINKS L0075 N0577 N0391 N0392
LINKS N0061 N0123 N0380 N0541
LINKS N0372 3473 3528 N0266
LINKS N0192 N0103 N0242 L0154
LINKS N0118 4744 L0044 N0147
LINKS L0176 L0177 L0178 L0179
LINKS L0180 L0175 L0195 L0196
LINKS L0118 L0174 L0171 L0221
LINKS L0216 L0172 L0217 L0173
LINKS L0218 L0193 L0170 L0168
LINKS L0169 L0191 L0192 L0015
LINKS L0189 L0190 L0220 2400
LINKS L0186 L0187 L0188 L0183
LINKS L0184 L0185 L0026 L0011
LINKS L0181 L0182 L0029 L0212
LINKS L0197 L0198 L0092 L0199
LINKS L0219 L0145 L0200 L0201
LINKS L0194 L0202 L0203 L0213
LINKS L0204 L0205 L0206 L0207
LINKS L0208 L0158 L0167 N0290
LINKS L0164 L0165 L0166 L0072
LINKS L0163 L0162 L0159 L0161
LINKS L0001 L0210 5475 L0156

[EVENTS]
01/01/1977  0:00  01/01/1982  0:00

